%%MatrixMarket matrix coordinate real general
242 242 4924
1 1 1.0000000000000000
1 2 0.0000000000000000
1 3 0.0000000000000000
1 4 0.0000000000000000
1 5 0.0000000000000000
1 6 0.0000000000000000
1 7 0.0000000000000000
1 8 0.0000000000000000
1 9 0.0000000000000000
1 10 0.0000000000000000
1 11 0.0000000000000000
1 12 0.0000000000000000
2 1 0.0000000000000000
2 2 1.0000000000000000
2 3 0.0000000000000000
2 4 0.0000000000000000
2 5 0.0000000000000000
2 6 0.0000000000000000
2 7 0.0000000000000000
2 8 0.0000000000000000
2 9 0.0000000000000000
2 10 0.0000000000000000
2 11 0.0000000000000000
2 12 0.0000000000000000
3 1 0.0000000000000000
3 2 0.0000000000000000
3 3 1.0000000000000000
3 4 0.0000000000000000
3 5 0.0000000000000000
3 6 0.0000000000000000
3 7 0.0000000000000000
3 8 0.0000000000000000
3 9 0.0000000000000000
3 10 0.0000000000000000
3 11 0.0000000000000000
3 12 0.0000000000000000
3 13 0.0000000000000000
3 14 0.0000000000000000
3 15 0.0000000000000000
3 16 0.0000000000000000
3 17 0.0000000000000000
3 18 0.0000000000000000
3 19 0.0000000000000000
3 20 0.0000000000000000
3 21 0.0000000000000000
3 22 0.0000000000000000
3 23 0.0000000000000000
3 24 0.0000000000000000
4 1 0.0000000000000000
4 2 0.0000000000000000
4 3 0.0000000000000000
4 4 1.0000000000000000
4 5 0.0000000000000000
4 6 0.0000000000000000
4 7 0.0000000000000000
4 8 0.0000000000000000
4 9 0.0000000000000000
4 10 0.0000000000000000
4 11 0.0000000000000000
4 12 0.0000000000000000
4 13 0.0000000000000000
4 14 0.0000000000000000
4 15 0.0000000000000000
4 16 0.0000000000000000
4 17 0.0000000000000000
4 18 0.0000000000000000
4 19 0.0000000000000000
4 20 0.0000000000000000
4 21 0.0000000000000000
4 22 0.0000000000000000
4 23 0.0000000000000000
4 24 0.0000000000000000
5 1 0.0000000000000000
5 2 0.0000000000000000
5 3 0.0000000000000000
5 4 0.0000000000000000
5 5 1.0000000000000000
5 6 0.0000000000000000
5 7 0.0000000000000000
5 8 0.0000000000000000
5 9 0.0000000000000000
5 10 0.0000000000000000
5 11 0.0000000000000000
5 12 0.0000000000000000
5 15 0.0000000000000000
5 16 0.0000000000000000
5 19 0.0000000000000000
5 20 0.0000000000000000
5 23 0.0000000000000000
5 24 0.0000000000000000
5 25 0.0000000000000000
5 26 0.0000000000000000
5 27 0.0000000000000000
5 28 0.0000000000000000
5 29 0.0000000000000000
5 30 0.0000000000000000
6 1 0.0000000000000000
6 2 0.0000000000000000
6 3 0.0000000000000000
6 4 0.0000000000000000
6 5 0.0000000000000000
6 6 1.0000000000000000
6 7 0.0000000000000000
6 8 0.0000000000000000
6 9 0.0000000000000000
6 10 0.0000000000000000
6 11 0.0000000000000000
6 12 0.0000000000000000
6 15 0.0000000000000000
6 16 0.0000000000000000
6 19 0.0000000000000000
6 20 0.0000000000000000
6 23 0.0000000000000000
6 24 0.0000000000000000
6 25 0.0000000000000000
6 26 0.0000000000000000
6 27 0.0000000000000000
6 28 0.0000000000000000
6 29 0.0000000000000000
6 30 0.0000000000000000
7 1 0.0000000000000000
7 2 0.0000000000000000
7 3 0.0000000000000033
7 4 -4.6666666666666803
7 5 0.0000000000000229
7 6 -4.6666666666666679
7 7 29.3333333333333606
7 8 -9.3333333333333641
7 9 -2.6666666666667771
7 10 4.6666666666666918
7 11 -12.0000000000000178
7 12 4.6666666666666821
7 15 0.0000000000000000
7 16 0.0000000000000000
7 19 -2.6666666666666714
7 20 4.6666666666666661
7 23 -11.9999999999999858
7 24 4.6666666666667052
8 1 0.0000000000000000
8 2 0.0000000000000000
8 3 -4.6666666666666803
8 4 0.0000000000000033
8 5 -4.6666666666666679
8 6 0.0000000000000229
8 7 -9.3333333333333641
8 8 29.3333333333333712
8 9 4.6666666666667052
8 10 -11.9999999999999929
8 11 4.6666666666666661
8 12 -2.6666666666666705
8 15 0.0000000000000000
8 16 0.0000000000000000
8 19 4.6666666666666821
8 20 -12.0000000000000213
8 23 4.6666666666666918
8 24 -2.6666666666667780
9 1 0.0000000000000000
9 2 0.0000000000000000
9 3 0.0000000000000000
9 4 0.0000000000000000
9 5 0.0000000000000000
9 6 0.0000000000000000
9 7 0.0000000000000000
9 8 0.0000000000000000
9 9 1.0000000000000000
9 10 0.0000000000000000
9 11 0.0000000000000000
9 12 0.0000000000000000
10 1 0.0000000000000000
10 2 0.0000000000000000
10 3 0.0000000000000000
10 4 0.0000000000000000
10 5 0.0000000000000000
10 6 0.0000000000000000
10 7 0.0000000000000000
10 8 0.0000000000000000
10 9 0.0000000000000000
10 10 1.0000000000000000
10 11 0.0000000000000000
10 12 0.0000000000000000
11 1 0.0000000000000000
11 2 0.0000000000000000
11 3 0.0000000000000000
11 4 0.0000000000000000
11 5 0.0000000000000000
11 6 0.0000000000000000
11 7 0.0000000000000000
11 8 0.0000000000000000
11 9 0.0000000000000000
11 10 0.0000000000000000
11 11 1.0000000000000000
11 12 0.0000000000000000
12 1 0.0000000000000000
12 2 0.0000000000000000
12 3 0.0000000000000000
12 4 0.0000000000000000
12 5 0.0000000000000000
12 6 0.0000000000000000
12 7 0.0000000000000000
12 8 0.0000000000000000
12 9 0.0000000000000000
12 10 0.0000000000000000
12 11 0.0000000000000000
12 12 1.0000000000000000
13 3 0.0000000000000000
13 4 0.0000000000000000
13 13 1.0000000000000000
13 14 0.0000000000000000
13 15 0.0000000000000000
13 16 0.0000000000000000
13 17 0.0000000000000000
13 18 0.0000000000000000
13 19 0.0000000000000000
13 20 0.0000000000000000
13 21 0.0000000000000000
13 22 0.0000000000000000
13 31 0.0000000000000000
13 32 0.0000000000000000
13 33 0.0000000000000000
13 34 0.0000000000000000
13 35 0.0000000000000000
13 36 0.0000000000000000
13 37 0.0000000000000000
13 38 0.0000000000000000
13 39 0.0000000000000000
13 40 0.0000000000000000
13 41 0.0000000000000000
13 42 0.0000000000000000
14 3 0.0000000000000000
14 4 0.0000000000000000
14 13 0.0000000000000000
14 14 1.0000000000000000
14 15 0.0000000000000000
14 16 0.0000000000000000
14 17 0.0000000000000000
14 18 0.0000000000000000
14 19 0.0000000000000000
14 20 0.0000000000000000
14 21 0.0000000000000000
14 22 0.0000000000000000
14 31 0.0000000000000000
14 32 0.0000000000000000
14 33 0.0000000000000000
14 34 0.0000000000000000
14 35 0.0000000000000000
14 36 0.0000000000000000
14 37 0.0000000000000000
14 38 0.0000000000000000
14 39 0.0000000000000000
14 40 0.0000000000000000
14 41 0.0000000000000000
14 42 0.0000000000000000
15 3 3.0000000000000124
15 4 -1.1666666666666752
15 5 0.6666666666666805
15 6 -1.1666666666666750
15 7 0.0000000000000000
15 8 0.0000000000000000
15 13 -0.0000000000000100
15 14 1.1666666666666650
15 15 22.0000000000000036
15 16 -7.0000000000000000
15 17 0.0000000000000229
15 18 -4.6666666666666679
15 19 -12.0000000000000142
15 20 4.6666666666666767
15 21 0.0000000000000000
15 22 0.0000000000000000
15 23 -2.6666666666666741
15 24 4.6666666666666599
15 25 -0.0000000000000100
15 26 1.1666666666666647
15 27 0.0000000000000033
15 28 -4.6666666666666803
15 29 0.0000000000000000
15 30 0.0000000000000000
15 33 0.6666666666666801
15 34 -1.1666666666666747
15 37 0.0000000000000000
15 38 0.0000000000000000
15 41 -2.6666666666666785
15 42 4.6666666666666750
15 43 3.0000000000000124
15 44 -1.1666666666666747
15 45 0.0000000000000000
15 46 0.0000000000000000
15 47 -11.9999999999999929
15 48 4.6666666666666714
15 49 0.0000000000000000
15 50 0.0000000000000000
16 3 -1.1666666666666747
16 4 0.6666666666666811
16 5 -1.1666666666666747
16 6 3.0000000000000133
16 7 0.0000000000000000
16 8 0.0000000000000000
16 13 1.1666666666666647
16 14 -0.0000000000000100
16 15 -7.0000000000000000
16 16 22.0000000000000000
16 17 -4.6666666666666679
16 18 0.0000000000000229
16 19 4.6666666666666750
16 20 -2.6666666666666821
16 21 0.0000000000000000
16 22 0.0000000000000000
16 23 4.6666666666666714
16 24 -11.9999999999999964
16 25 1.1666666666666647
16 26 -0.0000000000000100
16 27 -4.6666666666666803
16 28 0.0000000000000033
16 29 0.0000000000000000
16 30 0.0000000000000000
16 33 -1.1666666666666750
16 34 3.0000000000000115
16 37 0.0000000000000000
16 38 0.0000000000000000
16 41 4.6666666666666758
16 42 -12.0000000000000107
16 43 -1.1666666666666750
16 44 0.6666666666666811
16 45 0.0000000000000000
16 46 0.0000000000000000
16 47 4.6666666666666599
16 48 -2.6666666666666750
16 49 0.0000000000000000
16 50 0.0000000000000000
17 3 0.0000000000000000
17 4 0.0000000000000000
17 13 0.0000000000000033
17 14 -4.6666666666666803
17 15 0.0000000000000229
17 16 -4.6666666666666679
17 17 29.3333333333333712
17 18 -9.3333333333333641
17 19 -2.6666666666667735
17 20 4.6666666666666909
17 21 -12.0000000000000249
17 22 4.6666666666666829
17 33 0.0000000000000000
17 34 0.0000000000000000
17 37 -2.6666666666666701
17 38 4.6666666666666661
17 41 -11.9999999999999911
17 42 4.6666666666667043
18 3 0.0000000000000000
18 4 0.0000000000000000
18 13 -4.6666666666666803
18 14 0.0000000000000033
18 15 -4.6666666666666679
18 16 0.0000000000000229
18 17 -9.3333333333333641
18 18 29.3333333333333677
18 19 4.6666666666667052
18 20 -11.9999999999999858
18 21 4.6666666666666661
18 22 -2.6666666666666723
18 33 0.0000000000000000
18 34 0.0000000000000000
18 37 4.6666666666666821
18 38 -12.0000000000000178
18 41 4.6666666666666918
18 42 -2.6666666666667806
19 3 -11.9999999999999929
19 4 4.6666666666666607
19 5 0.0000000000000000
19 6 0.0000000000000000
19 7 -2.6666666666666714
19 8 4.6666666666666821
19 13 0.0000000000000000
19 14 0.0000000000000000
19 15 -12.0000000000000142
19 16 4.6666666666666750
19 17 -2.6666666666667753
19 18 4.6666666666667043
19 19 29.3333333333333321
19 20 -9.3333333333333925
19 21 0.0000000000000622
19 22 -4.6666666666666599
19 23 0.0000000000000138
19 24 -4.6666666666666590
20 3 4.6666666666666714
20 4 -2.6666666666666750
20 5 0.0000000000000000
20 6 0.0000000000000000
20 7 4.6666666666666661
20 8 -12.0000000000000213
20 13 0.0000000000000000
20 14 0.0000000000000000
20 15 4.6666666666666758
20 16 -2.6666666666666821
20 17 4.6666666666666909
20 18 -11.9999999999999858
20 19 -9.3333333333333925
20 20 29.3333333333333144
20 21 -4.6666666666666572
20 22 0.0000000000000138
20 23 -4.6666666666666572
20 24 0.0000000000000604
21 3 0.0000000000000000
21 4 0.0000000000000000
21 13 0.0000000000000000
21 14 0.0000000000000000
21 15 0.0000000000000000
21 16 0.0000000000000000
21 17 0.0000000000000000
21 18 0.0000000000000000
21 19 0.0000000000000000
21 20 0.0000000000000000
21 21 1.0000000000000000
21 22 0.0000000000000000
22 3 0.0000000000000000
22 4 0.0000000000000000
22 13 0.0000000000000000
22 14 0.0000000000000000
22 15 0.0000000000000000
22 16 0.0000000000000000
22 17 0.0000000000000000
22 18 0.0000000000000000
22 19 0.0000000000000000
22 20 0.0000000000000000
22 21 0.0000000000000000
22 22 1.0000000000000000
23 3 0.0000000000000000
23 4 0.0000000000000000
23 5 -2.6666666666666812
23 6 4.6666666666666758
23 7 -11.9999999999999858
23 8 4.6666666666666909
23 15 -2.6666666666666741
23 16 4.6666666666666714
23 19 0.0000000000000138
23 20 -4.6666666666666572
23 23 29.3333333333333073
23 24 -9.3333333333333925
23 25 0.0000000000000000
23 26 0.0000000000000000
23 27 -12.0000000000000178
23 28 4.6666666666666661
23 29 0.0000000000000622
23 30 -4.6666666666666572
24 3 0.0000000000000000
24 4 0.0000000000000000
24 5 4.6666666666666750
24 6 -12.0000000000000178
24 7 4.6666666666667052
24 8 -2.6666666666667780
24 15 4.6666666666666599
24 16 -11.9999999999999964
24 19 -4.6666666666666590
24 20 0.0000000000000604
24 23 -9.3333333333333943
24 24 29.3333333333333428
24 25 0.0000000000000000
24 26 0.0000000000000000
24 27 4.6666666666666821
24 28 -2.6666666666666705
24 29 -4.6666666666666590
24 30 0.0000000000000138
25 5 0.0000000000000000
25 6 0.0000000000000000
25 15 0.0000000000000000
25 16 0.0000000000000000
25 23 0.0000000000000000
25 24 0.0000000000000000
25 25 1.0000000000000000
25 26 0.0000000000000000
25 27 0.0000000000000000
25 28 0.0000000000000000
25 29 0.0000000000000000
25 30 0.0000000000000000
25 43 0.0000000000000000
25 44 0.0000000000000000
25 47 0.0000000000000000
25 48 0.0000000000000000
25 49 0.0000000000000000
25 50 0.0000000000000000
25 51 0.0000000000000000
25 52 0.0000000000000000
25 53 0.0000000000000000
25 54 0.0000000000000000
25 55 0.0000000000000000
25 56 0.0000000000000000
26 5 0.0000000000000000
26 6 0.0000000000000000
26 15 0.0000000000000000
26 16 0.0000000000000000
26 23 0.0000000000000000
26 24 0.0000000000000000
26 25 0.0000000000000000
26 26 1.0000000000000000
26 27 0.0000000000000000
26 28 0.0000000000000000
26 29 0.0000000000000000
26 30 0.0000000000000000
26 43 0.0000000000000000
26 44 0.0000000000000000
26 47 0.0000000000000000
26 48 0.0000000000000000
26 49 0.0000000000000000
26 50 0.0000000000000000
26 51 0.0000000000000000
26 52 0.0000000000000000
26 53 0.0000000000000000
26 54 0.0000000000000000
26 55 0.0000000000000000
26 56 0.0000000000000000
27 5 0.0000000000000000
27 6 0.0000000000000000
27 15 0.0000000000000033
27 16 -4.6666666666666803
27 23 -12.0000000000000178
27 24 4.6666666666666821
27 25 0.0000000000000229
27 26 -4.6666666666666679
27 27 29.3333333333333606
27 28 -9.3333333333333641
27 29 -2.6666666666667771
27 30 4.6666666666666918
27 43 0.0000000000000000
27 44 0.0000000000000000
27 47 -2.6666666666666714
27 48 4.6666666666666661
27 49 -11.9999999999999858
27 50 4.6666666666667052
28 5 0.0000000000000000
28 6 0.0000000000000000
28 15 -4.6666666666666803
28 16 0.0000000000000033
28 23 4.6666666666666661
28 24 -2.6666666666666705
28 25 -4.6666666666666679
28 26 0.0000000000000229
28 27 -9.3333333333333641
28 28 29.3333333333333712
28 29 4.6666666666667052
28 30 -11.9999999999999929
28 43 0.0000000000000000
28 44 0.0000000000000000
28 47 4.6666666666666821
28 48 -12.0000000000000213
28 49 4.6666666666666918
28 50 -2.6666666666667780
29 5 0.0000000000000000
29 6 0.0000000000000000
29 15 0.0000000000000000
29 16 0.0000000000000000
29 23 0.0000000000000000
29 24 0.0000000000000000
29 25 0.0000000000000000
29 26 0.0000000000000000
29 27 0.0000000000000000
29 28 0.0000000000000000
29 29 1.0000000000000000
29 30 0.0000000000000000
30 5 0.0000000000000000
30 6 0.0000000000000000
30 15 0.0000000000000000
30 16 0.0000000000000000
30 23 0.0000000000000000
30 24 0.0000000000000000
30 25 0.0000000000000000
30 26 0.0000000000000000
30 27 0.0000000000000000
30 28 0.0000000000000000
30 29 0.0000000000000000
30 30 1.0000000000000000
31 13 0.0000000000000000
31 14 0.0000000000000000
31 31 1.0000000000000000
31 32 0.0000000000000000
31 33 0.0000000000000000
31 34 0.0000000000000000
31 35 0.0000000000000000
31 36 0.0000000000000000
31 37 0.0000000000000000
31 38 0.0000000000000000
31 39 0.0000000000000000
31 40 0.0000000000000000
31 57 0.0000000000000000
31 58 0.0000000000000000
31 59 0.0000000000000000
31 60 0.0000000000000000
31 61 0.0000000000000000
31 62 0.0000000000000000
31 63 0.0000000000000000
31 64 0.0000000000000000
31 65 0.0000000000000000
31 66 0.0000000000000000
31 67 0.0000000000000000
31 68 0.0000000000000000
32 13 0.0000000000000000
32 14 0.0000000000000000
32 31 0.0000000000000000
32 32 1.0000000000000000
32 33 0.0000000000000000
32 34 0.0000000000000000
32 35 0.0000000000000000
32 36 0.0000000000000000
32 37 0.0000000000000000
32 38 0.0000000000000000
32 39 0.0000000000000000
32 40 0.0000000000000000
32 57 0.0000000000000000
32 58 0.0000000000000000
32 59 0.0000000000000000
32 60 0.0000000000000000
32 61 0.0000000000000000
32 62 0.0000000000000000
32 63 0.0000000000000000
32 64 0.0000000000000000
32 65 0.0000000000000000
32 66 0.0000000000000000
32 67 0.0000000000000000
32 68 0.0000000000000000
33 13 3.0000000000000124
33 14 -1.1666666666666750
33 15 0.6666666666666801
33 16 -1.1666666666666750
33 17 0.0000000000000000
33 18 0.0000000000000000
33 31 -0.0000000000000100
33 32 1.1666666666666647
33 33 22.0000000000000000
33 34 -7.0000000000000000
33 35 0.0000000000000229
33 36 -4.6666666666666679
33 37 -12.0000000000000142
33 38 4.6666666666666750
33 39 0.0000000000000000
33 40 0.0000000000000000
33 41 -2.6666666666666723
33 42 4.6666666666666599
33 43 -0.0000000000000100
33 44 1.1666666666666650
33 45 0.0000000000000033
33 46 -4.6666666666666803
33 47 0.0000000000000000
33 48 0.0000000000000000
33 59 0.6666666666666805
33 60 -1.1666666666666747
33 63 0.0000000000000000
33 64 0.0000000000000000
33 67 -2.6666666666666812
33 68 4.6666666666666750
33 69 3.0000000000000124
33 70 -1.1666666666666747
33 71 0.0000000000000000
33 72 0.0000000000000000
33 73 -11.9999999999999929
33 74 4.6666666666666714
33 75 0.0000000000000000
33 76 0.0000000000000000
34 13 -1.1666666666666747
34 14 0.6666666666666806
34 15 -1.1666666666666747
34 16 3.0000000000000115
34 17 0.0000000000000000
34 18 0.0000000000000000
34 31 1.1666666666666647
34 32 -0.0000000000000100
34 33 -7.0000000000000000
34 34 22.0000000000000036
34 35 -4.6666666666666679
34 36 0.0000000000000229
34 37 4.6666666666666750
34 38 -2.6666666666666812
34 39 0.0000000000000000
34 40 0.0000000000000000
34 41 4.6666666666666714
34 42 -11.9999999999999893
34 43 1.1666666666666647
34 44 -0.0000000000000100
34 45 -4.6666666666666803
34 46 0.0000000000000033
34 47 0.0000000000000000
34 48 0.0000000000000000
34 59 -1.1666666666666750
34 60 3.0000000000000133
34 63 0.0000000000000000
34 64 0.0000000000000000
34 67 4.6666666666666758
34 68 -12.0000000000000178
34 69 -1.1666666666666750
34 70 0.6666666666666806
34 71 0.0000000000000000
34 72 0.0000000000000000
34 73 4.6666666666666599
34 74 -2.6666666666666741
34 75 0.0000000000000000
34 76 0.0000000000000000
35 13 0.0000000000000000
35 14 0.0000000000000000
35 31 0.0000000000000033
35 32 -4.6666666666666803
35 33 0.0000000000000229
35 34 -4.6666666666666679
35 35 29.3333333333333606
35 36 -9.3333333333333641
35 37 -2.6666666666667771
35 38 4.6666666666666918
35 39 -12.0000000000000178
35 40 4.6666666666666821
35 59 0.0000000000000000
35 60 0.0000000000000000
35 63 -2.6666666666666714
35 64 4.6666666666666661
35 67 -11.9999999999999858
35 68 4.6666666666667052
36 13 0.0000000000000000
36 14 0.0000000000000000
36 31 -4.6666666666666803
36 32 0.0000000000000033
36 33 -4.6666666666666679
36 34 0.0000000000000229
36 35 -9.3333333333333641
36 36 29.3333333333333712
36 37 4.6666666666667052
36 38 -11.9999999999999929
36 39 4.6666666666666661
36 40 -2.6666666666666705
36 59 0.0000000000000000
36 60 0.0000000000000000
36 63 4.6666666666666821
36 64 -12.0000000000000213
36 67 4.6666666666666918
36 68 -2.6666666666667780
37 13 -11.9999999999999929
37 14 4.6666666666666590
37 15 0.0000000000000000
37 16 0.0000000000000000
37 17 -2.6666666666666701
37 18 4.6666666666666829
37 31 0.0000000000000000
37 32 0.0000000000000000
37 33 -12.0000000000000142
37 34 4.6666666666666750
37 35 -2.6666666666667753
37 36 4.6666666666667052
37 37 29.3333333333333357
37 38 -9.3333333333333925
37 39 0.0000000000000622
37 40 -4.6666666666666590
37 41 0.0000000000000138
37 42 -4.6666666666666599
38 13 4.6666666666666714
38 14 -2.6666666666666741
38 15 0.0000000000000000
38 16 0.0000000000000000
38 17 4.6666666666666661
38 18 -12.0000000000000178
38 31 0.0000000000000000
38 32 0.0000000000000000
38 33 4.6666666666666758
38 34 -2.6666666666666812
38 35 4.6666666666666909
38 36 -11.9999999999999929
38 37 -9.3333333333333925
38 38 29.3333333333333144
38 39 -4.6666666666666572
38 40 0.0000000000000138
38 41 -4.6666666666666572
38 42 0.0000000000000622
39 13 0.0000000000000000
39 14 0.0000000000000000
39 31 0.0000000000000000
39 32 0.0000000000000000
39 33 0.0000000000000000
39 34 0.0000000000000000
39 35 0.0000000000000000
39 36 0.0000000000000000
39 37 0.0000000000000000
39 38 0.0000000000000000
39 39 1.0000000000000000
39 40 0.0000000000000000
40 13 0.0000000000000000
40 14 0.0000000000000000
40 31 0.0000000000000000
40 32 0.0000000000000000
40 33 0.0000000000000000
40 34 0.0000000000000000
40 35 0.0000000000000000
40 36 0.0000000000000000
40 37 0.0000000000000000
40 38 0.0000000000000000
40 39 0.0000000000000000
40 40 1.0000000000000000
41 13 0.0000000000000000
41 14 0.0000000000000000
41 15 -2.6666666666666785
41 16 4.6666666666666750
41 17 -11.9999999999999911
41 18 4.6666666666666909
41 33 -2.6666666666666723
41 34 4.6666666666666714
41 37 0.0000000000000138
41 38 -4.6666666666666572
41 41 29.3333333333333144
41 42 -9.3333333333333925
41 43 0.0000000000000000
41 44 0.0000000000000000
41 45 -12.0000000000000249
41 46 4.6666666666666661
41 47 0.0000000000000622
41 48 -4.6666666666666572
42 13 0.0000000000000000
42 14 0.0000000000000000
42 15 4.6666666666666750
42 16 -12.0000000000000107
42 17 4.6666666666667052
42 18 -2.6666666666667789
42 33 4.6666666666666599
42 34 -11.9999999999999893
42 37 -4.6666666666666590
42 38 0.0000000000000622
42 41 -9.3333333333333943
42 42 29.3333333333333357
42 43 0.0000000000000000
42 44 0.0000000000000000
42 45 4.6666666666666821
42 46 -2.6666666666666723
42 47 -4.6666666666666590
42 48 0.0000000000000138
43 15 3.0000000000000124
43 16 -1.1666666666666752
43 25 0.6666666666666807
43 26 -1.1666666666666752
43 27 0.0000000000000000
43 28 0.0000000000000000
43 33 -0.0000000000000100
43 34 1.1666666666666650
43 41 0.0000000000000000
43 42 0.0000000000000000
43 43 22.0000000000000036
43 44 -7.0000000000000000
43 45 0.0000000000000229
43 46 -4.6666666666666679
43 47 -12.0000000000000142
43 48 4.6666666666666767
43 49 -2.6666666666666741
43 50 4.6666666666666599
43 51 -0.0000000000000100
43 52 1.1666666666666650
43 53 0.0000000000000033
43 54 -4.6666666666666803
43 55 0.0000000000000000
43 56 0.0000000000000000
43 69 0.6666666666666801
43 70 -1.1666666666666747
43 73 0.0000000000000000
43 74 0.0000000000000000
43 75 -2.6666666666666785
43 76 4.6666666666666750
43 77 3.0000000000000133
43 78 -1.1666666666666750
43 79 0.0000000000000000
43 80 0.0000000000000000
43 81 -11.9999999999999964
43 82 4.6666666666666723
43 83 0.0000000000000000
43 84 0.0000000000000000
44 15 -1.1666666666666747
44 16 0.6666666666666811
44 25 -1.1666666666666750
44 26 3.0000000000000129
44 27 0.0000000000000000
44 28 0.0000000000000000
44 33 1.1666666666666647
44 34 -0.0000000000000100
44 41 0.0000000000000000
44 42 0.0000000000000000
44 43 -7.0000000000000000
44 44 22.0000000000000000
44 45 -4.6666666666666679
44 46 0.0000000000000229
44 47 4.6666666666666750
44 48 -2.6666666666666821
44 49 4.6666666666666723
44 50 -11.9999999999999929
44 51 1.1666666666666650
44 52 -0.0000000000000100
44 53 -4.6666666666666803
44 54 0.0000000000000033
44 55 0.0000000000000000
44 56 0.0000000000000000
44 69 -1.1666666666666750
44 70 3.0000000000000115
44 73 0.0000000000000000
44 74 0.0000000000000000
44 75 4.6666666666666758
44 76 -12.0000000000000107
44 77 -1.1666666666666752
44 78 0.6666666666666810
44 79 0.0000000000000000
44 80 0.0000000000000000
44 81 4.6666666666666599
44 82 -2.6666666666666745
44 83 0.0000000000000000
44 84 0.0000000000000000
45 15 0.0000000000000000
45 16 0.0000000000000000
45 33 0.0000000000000033
45 34 -4.6666666666666803
45 41 -12.0000000000000249
45 42 4.6666666666666829
45 43 0.0000000000000229
45 44 -4.6666666666666679
45 45 29.3333333333333712
45 46 -9.3333333333333641
45 47 -2.6666666666667735
45 48 4.6666666666666909
45 69 0.0000000000000000
45 70 0.0000000000000000
45 73 -2.6666666666666701
45 74 4.6666666666666661
45 75 -11.9999999999999911
45 76 4.6666666666667043
46 15 0.0000000000000000
46 16 0.0000000000000000
46 33 -4.6666666666666803
46 34 0.0000000000000033
46 41 4.6666666666666661
46 42 -2.6666666666666723
46 43 -4.6666666666666679
46 44 0.0000000000000229
46 45 -9.3333333333333641
46 46 29.3333333333333677
46 47 4.6666666666667052
46 48 -11.9999999999999858
46 69 0.0000000000000000
46 70 0.0000000000000000
46 73 4.6666666666666821
46 74 -12.0000000000000178
46 75 4.6666666666666918
46 76 -2.6666666666667806
47 15 -11.9999999999999929
47 16 4.6666666666666607
47 25 0.0000000000000000
47 26 0.0000000000000000
47 27 -2.6666666666666714
47 28 4.6666666666666821
47 33 0.0000000000000000
47 34 0.0000000000000000
47 41 0.0000000000000622
47 42 -4.6666666666666599
47 43 -12.0000000000000142
47 44 4.6666666666666750
47 45 -2.6666666666667753
47 46 4.6666666666667043
47 47 29.3333333333333321
47 48 -9.3333333333333925
47 49 0.0000000000000138
47 50 -4.6666666666666590
48 15 4.6666666666666714
48 16 -2.6666666666666750
48 25 0.0000000000000000
48 26 0.0000000000000000
48 27 4.6666666666666661
48 28 -12.0000000000000213
48 33 0.0000000000000000
48 34 0.0000000000000000
48 41 -4.6666666666666572
48 42 0.0000000000000138
48 43 4.6666666666666758
48 44 -2.6666666666666821
48 45 4.6666666666666909
48 46 -11.9999999999999858
48 47 -9.3333333333333925
48 48 29.3333333333333144
48 49 -4.6666666666666572
48 50 0.0000000000000604
49 15 0.0000000000000000
49 16 0.0000000000000000
49 25 -2.6666666666666803
49 26 4.6666666666666758
49 27 -11.9999999999999858
49 28 4.6666666666666909
49 43 -2.6666666666666741
49 44 4.6666666666666723
49 47 0.0000000000000138
49 48 -4.6666666666666572
49 49 29.3333333333333108
49 50 -9.3333333333333925
49 51 0.0000000000000000
49 52 0.0000000000000000
49 53 -12.0000000000000213
49 54 4.6666666666666670
49 55 0.0000000000000604
49 56 -4.6666666666666572
50 15 0.0000000000000000
50 16 0.0000000000000000
50 25 4.6666666666666758
50 26 -12.0000000000000160
50 27 4.6666666666667052
50 28 -2.6666666666667780
50 43 4.6666666666666599
50 44 -11.9999999999999929
50 47 -4.6666666666666590
50 48 0.0000000000000604
50 49 -9.3333333333333961
50 50 29.3333333333333428
50 51 0.0000000000000000
50 52 0.0000000000000000
50 53 4.6666666666666829
50 54 -2.6666666666666714
50 55 -4.6666666666666599
50 56 0.0000000000000138
51 25 0.0000000000000000
51 26 0.0000000000000000
51 43 0.0000000000000000
51 44 0.0000000000000000
51 49 0.0000000000000000
51 50 0.0000000000000000
51 51 1.0000000000000000
51 52 0.0000000000000000
51 53 0.0000000000000000
51 54 0.0000000000000000
51 55 0.0000000000000000
51 56 0.0000000000000000
51 77 0.0000000000000000
51 78 0.0000000000000000
51 81 0.0000000000000000
51 82 0.0000000000000000
51 83 0.0000000000000000
51 84 0.0000000000000000
51 85 0.0000000000000000
51 86 0.0000000000000000
51 87 0.0000000000000000
51 88 0.0000000000000000
51 89 0.0000000000000000
51 90 0.0000000000000000
52 25 0.0000000000000000
52 26 0.0000000000000000
52 43 0.0000000000000000
52 44 0.0000000000000000
52 49 0.0000000000000000
52 50 0.0000000000000000
52 51 0.0000000000000000
52 52 1.0000000000000000
52 53 0.0000000000000000
52 54 0.0000000000000000
52 55 0.0000000000000000
52 56 0.0000000000000000
52 77 0.0000000000000000
52 78 0.0000000000000000
52 81 0.0000000000000000
52 82 0.0000000000000000
52 83 0.0000000000000000
52 84 0.0000000000000000
52 85 0.0000000000000000
52 86 0.0000000000000000
52 87 0.0000000000000000
52 88 0.0000000000000000
52 89 0.0000000000000000
52 90 0.0000000000000000
53 25 0.0000000000000000
53 26 0.0000000000000000
53 43 0.0000000000000033
53 44 -4.6666666666666803
53 49 -12.0000000000000213
53 50 4.6666666666666829
53 51 0.0000000000000229
53 52 -4.6666666666666679
53 53 29.3333333333333677
53 54 -9.3333333333333641
53 55 -2.6666666666667762
53 56 4.6666666666666909
53 77 0.0000000000000000
53 78 0.0000000000000000
53 81 -2.6666666666666714
53 82 4.6666666666666670
53 83 -11.9999999999999893
53 84 4.6666666666667043
54 25 0.0000000000000000
54 26 0.0000000000000000
54 43 -4.6666666666666803
54 44 0.0000000000000033
54 49 4.6666666666666670
54 50 -2.6666666666666714
54 51 -4.6666666666666679
54 52 0.0000000000000229
54 53 -9.3333333333333641
54 54 29.3333333333333677
54 55 4.6666666666667043
54 56 -11.9999999999999893
54 77 0.0000000000000000
54 78 0.0000000000000000
54 81 4.6666666666666829
54 82 -12.0000000000000213
54 83 4.6666666666666909
54 84 -2.6666666666667762
55 25 0.0000000000000000
55 26 0.0000000000000000
55 43 0.0000000000000000
55 44 0.0000000000000000
55 49 0.0000000000000000
55 50 0.0000000000000000
55 51 0.0000000000000000
55 52 0.0000000000000000
55 53 0.0000000000000000
55 54 0.0000000000000000
55 55 1.0000000000000000
55 56 0.0000000000000000
56 25 0.0000000000000000
56 26 0.0000000000000000
56 43 0.0000000000000000
56 44 0.0000000000000000
56 49 0.0000000000000000
56 50 0.0000000000000000
56 51 0.0000000000000000
56 52 0.0000000000000000
56 53 0.0000000000000000
56 54 0.0000000000000000
56 55 0.0000000000000000
56 56 1.0000000000000000
57 31 0.0000000000000000
57 32 0.0000000000000000
57 57 1.0000000000000000
57 58 0.0000000000000000
57 59 0.0000000000000000
57 60 0.0000000000000000
57 61 0.0000000000000000
57 62 0.0000000000000000
57 63 0.0000000000000000
57 64 0.0000000000000000
57 65 0.0000000000000000
57 66 0.0000000000000000
57 91 0.0000000000000000
57 92 0.0000000000000000
57 93 0.0000000000000000
57 94 0.0000000000000000
57 95 0.0000000000000000
57 96 0.0000000000000000
57 97 0.0000000000000000
57 98 0.0000000000000000
57 99 0.0000000000000000
57 100 0.0000000000000000
57 101 0.0000000000000000
57 102 0.0000000000000000
58 31 0.0000000000000000
58 32 0.0000000000000000
58 57 0.0000000000000000
58 58 1.0000000000000000
58 59 0.0000000000000000
58 60 0.0000000000000000
58 61 0.0000000000000000
58 62 0.0000000000000000
58 63 0.0000000000000000
58 64 0.0000000000000000
58 65 0.0000000000000000
58 66 0.0000000000000000
58 91 0.0000000000000000
58 92 0.0000000000000000
58 93 0.0000000000000000
58 94 0.0000000000000000
58 95 0.0000000000000000
58 96 0.0000000000000000
58 97 0.0000000000000000
58 98 0.0000000000000000
58 99 0.0000000000000000
58 100 0.0000000000000000
58 101 0.0000000000000000
58 102 0.0000000000000000
59 31 3.0000000000000115
59 32 -1.1666666666666750
59 33 0.6666666666666805
59 34 -1.1666666666666750
59 35 0.0000000000000000
59 36 0.0000000000000000
59 57 -0.0000000000000100
59 58 1.1666666666666647
59 59 21.9999999999999964
59 60 -7.0000000000000000
59 61 0.0000000000000229
59 62 -4.6666666666666661
59 63 -12.0000000000000107
59 64 4.6666666666666750
59 65 0.0000000000000000
59 66 0.0000000000000000
59 67 -2.6666666666666741
59 68 4.6666666666666599
59 69 -0.0000000000000100
59 70 1.1666666666666647
59 71 0.0000000000000033
59 72 -4.6666666666666803
59 73 0.0000000000000000
59 74 0.0000000000000000
59 93 0.6666666666666804
59 94 -1.1666666666666747
59 97 0.0000000000000000
59 98 0.0000000000000000
59 101 -2.6666666666666803
59 102 4.6666666666666741
59 103 3.0000000000000115
59 104 -1.1666666666666745
59 105 0.0000000000000000
59 106 0.0000000000000000
59 107 -11.9999999999999893
59 108 4.6666666666666714
59 109 0.0000000000000000
59 110 0.0000000000000000
60 31 -1.1666666666666745
60 32 0.6666666666666808
60 33 -1.1666666666666747
60 34 3.0000000000000133
60 35 0.0000000000000000
60 36 0.0000000000000000
60 57 1.1666666666666647
60 58 -0.0000000000000100
60 59 -7.0000000000000000
60 60 22.0000000000000000
60 61 -4.6666666666666661
60 62 0.0000000000000229
60 63 4.6666666666666750
60 64 -2.6666666666666812
60 65 0.0000000000000000
60 66 0.0000000000000000
60 67 4.6666666666666714
60 68 -11.9999999999999964
60 69 1.1666666666666647
60 70 -0.0000000000000100
60 71 -4.6666666666666803
60 72 0.0000000000000033
60 73 0.0000000000000000
60 74 0.0000000000000000
60 93 -1.1666666666666750
60 94 3.0000000000000115
60 97 0.0000000000000000
60 98 0.0000000000000000
60 101 4.6666666666666750
60 102 -12.0000000000000107
60 103 -1.1666666666666750
60 104 0.6666666666666808
60 105 0.0000000000000000
60 106 0.0000000000000000
60 107 4.6666666666666590
60 108 -2.6666666666666741
60 109 0.0000000000000000
60 110 0.0000000000000000
61 31 0.0000000000000000
61 32 0.0000000000000000
61 57 0.0000000000000033
61 58 -4.6666666666666785
61 59 0.0000000000000229
61 60 -4.6666666666666661
61 61 29.3333333333333606
61 62 -9.3333333333333641
61 63 -2.6666666666667771
61 64 4.6666666666666909
61 65 -12.0000000000000178
61 66 4.6666666666666821
61 93 0.0000000000000000
61 94 0.0000000000000000
61 97 -2.6666666666666705
61 98 4.6666666666666652
61 101 -11.9999999999999858
61 102 4.6666666666667052
62 31 0.0000000000000000
62 32 0.0000000000000000
62 57 -4.6666666666666785
62 58 0.0000000000000033
62 59 -4.6666666666666661
62 60 0.0000000000000229
62 61 -9.3333333333333641
62 62 29.3333333333333606
62 63 4.6666666666667052
62 64 -11.9999999999999858
62 65 4.6666666666666652
62 66 -2.6666666666666705
62 93 0.0000000000000000
62 94 0.0000000000000000
62 97 4.6666666666666821
62 98 -12.0000000000000178
62 101 4.6666666666666909
62 102 -2.6666666666667771
63 31 -11.9999999999999893
63 32 4.6666666666666590
63 33 0.0000000000000000
63 34 0.0000000000000000
63 35 -2.6666666666666714
63 36 4.6666666666666821
63 57 0.0000000000000000
63 58 0.0000000000000000
63 59 -12.0000000000000107
63 60 4.6666666666666750
63 61 -2.6666666666667753
63 62 4.6666666666667052
63 63 29.3333333333333286
63 64 -9.3333333333333925
63 65 0.0000000000000622
63 66 -4.6666666666666581
63 67 0.0000000000000138
63 68 -4.6666666666666590
64 31 4.6666666666666714
64 32 -2.6666666666666741
64 33 0.0000000000000000
64 34 0.0000000000000000
64 35 4.6666666666666661
64 36 -12.0000000000000213
64 57 0.0000000000000000
64 58 0.0000000000000000
64 59 4.6666666666666750
64 60 -2.6666666666666812
64 61 4.6666666666666909
64 62 -11.9999999999999858
64 63 -9.3333333333333925
64 64 29.3333333333333108
64 65 -4.6666666666666554
64 66 0.0000000000000138
64 67 -4.6666666666666572
64 68 0.0000000000000604
65 31 0.0000000000000000
65 32 0.0000000000000000
65 57 0.0000000000000000
65 58 0.0000000000000000
65 59 0.0000000000000000
65 60 0.0000000000000000
65 61 0.0000000000000000
65 62 0.0000000000000000
65 63 0.0000000000000000
65 64 0.0000000000000000
65 65 1.0000000000000000
65 66 0.0000000000000000
66 31 0.0000000000000000
66 32 0.0000000000000000
66 57 0.0000000000000000
66 58 0.0000000000000000
66 59 0.0000000000000000
66 60 0.0000000000000000
66 61 0.0000000000000000
66 62 0.0000000000000000
66 63 0.0000000000000000
66 64 0.0000000000000000
66 65 0.0000000000000000
66 66 1.0000000000000000
67 31 0.0000000000000000
67 32 0.0000000000000000
67 33 -2.6666666666666812
67 34 4.6666666666666758
67 35 -11.9999999999999858
67 36 4.6666666666666909
67 59 -2.6666666666666741
67 60 4.6666666666666714
67 63 0.0000000000000138
67 64 -4.6666666666666572
67 67 29.3333333333333073
67 68 -9.3333333333333925
67 69 0.0000000000000000
67 70 0.0000000000000000
67 71 -12.0000000000000178
67 72 4.6666666666666661
67 73 0.0000000000000622
67 74 -4.6666666666666572
68 31 0.0000000000000000
68 32 0.0000000000000000
68 33 4.6666666666666750
68 34 -12.0000000000000178
68 35 4.6666666666667052
68 36 -2.6666666666667780
68 59 4.6666666666666599
68 60 -11.9999999999999964
68 63 -4.6666666666666590
68 64 0.0000000000000604
68 67 -9.3333333333333943
68 68 29.3333333333333428
68 69 0.0000000000000000
68 70 0.0000000000000000
68 71 4.6666666666666821
68 72 -2.6666666666666705
68 73 -4.6666666666666590
68 74 0.0000000000000138
69 33 3.0000000000000124
69 34 -1.1666666666666750
69 43 0.6666666666666801
69 44 -1.1666666666666752
69 45 0.0000000000000000
69 46 0.0000000000000000
69 59 -0.0000000000000100
69 60 1.1666666666666647
69 67 0.0000000000000000
69 68 0.0000000000000000
69 69 22.0000000000000036
69 70 -7.0000000000000000
69 71 0.0000000000000229
69 72 -4.6666666666666679
69 73 -12.0000000000000142
69 74 4.6666666666666750
69 75 -2.6666666666666714
69 76 4.6666666666666607
69 77 -0.0000000000000100
69 78 1.1666666666666647
69 79 0.0000000000000042
69 80 -4.6666666666666803
69 81 0.0000000000000000
69 82 0.0000000000000000
69 103 0.6666666666666807
69 104 -1.1666666666666750
69 107 0.0000000000000000
69 108 0.0000000000000000
69 109 -2.6666666666666803
69 110 4.6666666666666758
69 111 3.0000000000000133
69 112 -1.1666666666666747
69 113 0.0000000000000000
69 114 0.0000000000000000
69 115 -11.9999999999999964
69 116 4.6666666666666723
69 117 0.0000000000000000
69 118 0.0000000000000000
70 33 -1.1666666666666747
70 34 0.6666666666666806
70 43 -1.1666666666666747
70 44 3.0000000000000115
70 45 0.0000000000000000
70 46 0.0000000000000000
70 59 1.1666666666666647
70 60 -0.0000000000000100
70 67 0.0000000000000000
70 68 0.0000000000000000
70 69 -7.0000000000000000
70 70 22.0000000000000000
70 71 -4.6666666666666679
70 72 0.0000000000000229
70 73 4.6666666666666750
70 74 -2.6666666666666812
70 75 4.6666666666666714
70 76 -11.9999999999999893
70 77 1.1666666666666647
70 78 -0.0000000000000100
70 79 -4.6666666666666803
70 80 0.0000000000000033
70 81 0.0000000000000000
70 82 0.0000000000000000
70 103 -1.1666666666666752
70 104 3.0000000000000129
70 107 0.0000000000000000
70 108 0.0000000000000000
70 109 4.6666666666666758
70 110 -12.0000000000000160
70 111 -1.1666666666666752
70 112 0.6666666666666810
70 113 0.0000000000000000
70 114 0.0000000000000000
70 115 4.6666666666666607
70 116 -2.6666666666666750
70 117 0.0000000000000000
70 118 0.0000000000000000
71 33 0.0000000000000000
71 34 0.0000000000000000
71 59 0.0000000000000033
71 60 -4.6666666666666803
71 67 -12.0000000000000178
71 68 4.6666666666666821
71 69 0.0000000000000229
71 70 -4.6666666666666679
71 71 29.3333333333333606
71 72 -9.3333333333333641
71 73 -2.6666666666667771
71 74 4.6666666666666918
71 103 0.0000000000000000
71 104 0.0000000000000000
71 107 -2.6666666666666714
71 108 4.6666666666666661
71 109 -11.9999999999999858
71 110 4.6666666666667052
72 33 0.0000000000000000
72 34 0.0000000000000000
72 59 -4.6666666666666803
72 60 0.0000000000000033
72 67 4.6666666666666661
72 68 -2.6666666666666705
72 69 -4.6666666666666679
72 70 0.0000000000000229
72 71 -9.3333333333333641
72 72 29.3333333333333712
72 73 4.6666666666667052
72 74 -11.9999999999999929
72 103 0.0000000000000000
72 104 0.0000000000000000
72 107 4.6666666666666821
72 108 -12.0000000000000213
72 109 4.6666666666666918
72 110 -2.6666666666667780
73 33 -11.9999999999999929
73 34 4.6666666666666590
73 43 0.0000000000000000
73 44 0.0000000000000000
73 45 -2.6666666666666701
73 46 4.6666666666666829
73 59 0.0000000000000000
73 60 0.0000000000000000
73 67 0.0000000000000622
73 68 -4.6666666666666590
73 69 -12.0000000000000142
73 70 4.6666666666666750
73 71 -2.6666666666667753
73 72 4.6666666666667052
73 73 29.3333333333333357
73 74 -9.3333333333333925
73 75 0.0000000000000138
73 76 -4.6666666666666599
74 33 4.6666666666666714
74 34 -2.6666666666666741
74 43 0.0000000000000000
74 44 0.0000000000000000
74 45 4.6666666666666661
74 46 -12.0000000000000178
74 59 0.0000000000000000
74 60 0.0000000000000000
74 67 -4.6666666666666572
74 68 0.0000000000000138
74 69 4.6666666666666758
74 70 -2.6666666666666812
74 71 4.6666666666666909
74 72 -11.9999999999999929
74 73 -9.3333333333333925
74 74 29.3333333333333144
74 75 -4.6666666666666572
74 76 0.0000000000000622
75 33 0.0000000000000000
75 34 0.0000000000000000
75 43 -2.6666666666666785
75 44 4.6666666666666767
75 45 -11.9999999999999911
75 46 4.6666666666666909
75 69 -2.6666666666666714
75 70 4.6666666666666714
75 73 0.0000000000000138
75 74 -4.6666666666666572
75 75 29.3333333333333144
75 76 -9.3333333333333925
75 77 0.0000000000000000
75 78 0.0000000000000000
75 79 -12.0000000000000266
75 80 4.6666666666666661
75 81 0.0000000000000639
75 82 -4.6666666666666572
76 33 0.0000000000000000
76 34 0.0000000000000000
76 43 4.6666666666666750
76 44 -12.0000000000000107
76 45 4.6666666666667052
76 46 -2.6666666666667789
76 69 4.6666666666666599
76 70 -11.9999999999999893
76 73 -4.6666666666666590
76 74 0.0000000000000622
76 75 -9.3333333333333943
76 76 29.3333333333333357
76 77 0.0000000000000000
76 78 0.0000000000000000
76 79 4.6666666666666821
76 80 -2.6666666666666727
76 81 -4.6666666666666590
76 82 0.0000000000000138
77 43 3.0000000000000133
77 44 -1.1666666666666752
77 51 0.6666666666666810
77 52 -1.1666666666666752
77 53 0.0000000000000000
77 54 0.0000000000000000
77 69 -0.0000000000000100
77 70 1.1666666666666647
77 75 0.0000000000000000
77 76 0.0000000000000000
77 77 22.0000000000000000
77 78 -7.0000000000000009
77 79 0.0000000000000238
77 80 -4.6666666666666679
77 81 -12.0000000000000178
77 82 4.6666666666666758
77 83 -2.6666666666666750
77 84 4.6666666666666607
77 85 -0.0000000000000100
77 86 1.1666666666666647
77 87 0.0000000000000033
77 88 -4.6666666666666803
77 89 0.0000000000000000
77 90 0.0000000000000000
77 111 0.6666666666666807
77 112 -1.1666666666666750
77 115 0.0000000000000000
77 116 0.0000000000000000
77 117 -2.6666666666666803
77 118 4.6666666666666767
77 119 3.0000000000000115
77 120 -1.1666666666666747
77 121 0.0000000000000000
77 122 0.0000000000000000
77 123 -11.9999999999999893
77 124 4.6666666666666714
77 125 0.0000000000000000
77 126 0.0000000000000000
78 43 -1.1666666666666750
78 44 0.6666666666666810
78 51 -1.1666666666666747
78 52 3.0000000000000133
78 53 0.0000000000000000
78 54 0.0000000000000000
78 69 1.1666666666666647
78 70 -0.0000000000000100
78 75 0.0000000000000000
78 76 0.0000000000000000
78 77 -7.0000000000000009
78 78 22.0000000000000036
78 79 -4.6666666666666679
78 80 0.0000000000000229
78 81 4.6666666666666758
78 82 -2.6666666666666807
78 83 4.6666666666666723
78 84 -11.9999999999999964
78 85 1.1666666666666647
78 86 -0.0000000000000100
78 87 -4.6666666666666803
78 88 0.0000000000000042
78 89 0.0000000000000000
78 90 0.0000000000000000
78 111 -1.1666666666666754
78 112 3.0000000000000120
78 115 0.0000000000000000
78 116 0.0000000000000000
78 117 4.6666666666666767
78 118 -12.0000000000000124
78 119 -1.1666666666666750
78 120 0.6666666666666803
78 121 0.0000000000000000
78 122 0.0000000000000000
78 123 4.6666666666666599
78 124 -2.6666666666666718
78 125 0.0000000000000000
78 126 0.0000000000000000
79 43 0.0000000000000000
79 44 0.0000000000000000
79 69 0.0000000000000042
79 70 -4.6666666666666803
79 75 -12.0000000000000266
79 76 4.6666666666666821
79 77 0.0000000000000238
79 78 -4.6666666666666679
79 79 29.3333333333333748
79 80 -9.3333333333333641
79 81 -2.6666666666667744
79 82 4.6666666666666918
79 111 0.0000000000000000
79 112 0.0000000000000000
79 115 -2.6666666666666696
79 116 4.6666666666666661
79 117 -11.9999999999999929
79 118 4.6666666666667052
80 43 0.0000000000000000
80 44 0.0000000000000000
80 69 -4.6666666666666803
80 70 0.0000000000000033
80 75 4.6666666666666661
80 76 -2.6666666666666727
80 77 -4.6666666666666679
80 78 0.0000000000000229
80 79 -9.3333333333333641
80 80 29.3333333333333570
80 81 4.6666666666667052
80 82 -11.9999999999999822
80 111 0.0000000000000000
80 112 0.0000000000000000
80 115 4.6666666666666821
80 116 -12.0000000000000142
80 117 4.6666666666666918
80 118 -2.6666666666667780
81 43 -11.9999999999999964
81 44 4.6666666666666599
81 51 0.0000000000000000
81 52 0.0000000000000000
81 53 -2.6666666666666714
81 54 4.6666666666666829
81 69 0.0000000000000000
81 70 0.0000000000000000
81 75 0.0000000000000639
81 76 -4.6666666666666590
81 77 -12.0000000000000178
81 78 4.6666666666666758
81 79 -2.6666666666667744
81 80 4.6666666666667052
81 81 29.3333333333333428
81 82 -9.3333333333333961
81 83 0.0000000000000138
81 84 -4.6666666666666599
82 43 4.6666666666666723
82 44 -2.6666666666666745
82 51 0.0000000000000000
82 52 0.0000000000000000
82 53 4.6666666666666670
82 54 -12.0000000000000213
82 69 0.0000000000000000
82 70 0.0000000000000000
82 75 -4.6666666666666572
82 76 0.0000000000000138
82 77 4.6666666666666758
82 78 -2.6666666666666807
82 79 4.6666666666666909
82 80 -11.9999999999999822
82 81 -9.3333333333333925
82 82 29.3333333333333073
82 83 -4.6666666666666572
82 84 0.0000000000000604
83 43 0.0000000000000000
83 44 0.0000000000000000
83 51 -2.6666666666666821
83 52 4.6666666666666767
83 53 -11.9999999999999893
83 54 4.6666666666666901
83 77 -2.6666666666666750
83 78 4.6666666666666723
83 81 0.0000000000000138
83 82 -4.6666666666666572
83 83 29.3333333333333108
83 84 -9.3333333333333925
83 85 0.0000000000000000
83 86 0.0000000000000000
83 87 -12.0000000000000142
83 88 4.6666666666666661
83 89 0.0000000000000604
83 90 -4.6666666666666572
84 43 0.0000000000000000
84 44 0.0000000000000000
84 51 4.6666666666666758
84 52 -12.0000000000000178
84 53 4.6666666666667043
84 54 -2.6666666666667762
84 77 4.6666666666666607
84 78 -11.9999999999999964
84 81 -4.6666666666666599
84 82 0.0000000000000604
84 83 -9.3333333333333925
84 84 29.3333333333333428
84 85 0.0000000000000000
84 86 0.0000000000000000
84 87 4.6666666666666821
84 88 -2.6666666666666696
84 89 -4.6666666666666590
84 90 0.0000000000000138
85 51 0.0000000000000000
85 52 0.0000000000000000
85 77 0.0000000000000000
85 78 0.0000000000000000
85 83 0.0000000000000000
85 84 0.0000000000000000
85 85 1.0000000000000000
85 86 0.0000000000000000
85 87 0.0000000000000000
85 88 0.0000000000000000
85 89 0.0000000000000000
85 90 0.0000000000000000
85 119 0.0000000000000000
85 120 0.0000000000000000
85 123 0.0000000000000000
85 124 0.0000000000000000
85 125 0.0000000000000000
85 126 0.0000000000000000
85 127 0.0000000000000000
85 128 0.0000000000000000
85 129 0.0000000000000000
85 130 0.0000000000000000
85 131 0.0000000000000000
85 132 0.0000000000000000
86 51 0.0000000000000000
86 52 0.0000000000000000
86 77 0.0000000000000000
86 78 0.0000000000000000
86 83 0.0000000000000000
86 84 0.0000000000000000
86 85 0.0000000000000000
86 86 1.0000000000000000
86 87 0.0000000000000000
86 88 0.0000000000000000
86 89 0.0000000000000000
86 90 0.0000000000000000
86 119 0.0000000000000000
86 120 0.0000000000000000
86 123 0.0000000000000000
86 124 0.0000000000000000
86 125 0.0000000000000000
86 126 0.0000000000000000
86 127 0.0000000000000000
86 128 0.0000000000000000
86 129 0.0000000000000000
86 130 0.0000000000000000
86 131 0.0000000000000000
86 132 0.0000000000000000
87 51 0.0000000000000000
87 52 0.0000000000000000
87 77 0.0000000000000033
87 78 -4.6666666666666803
87 83 -12.0000000000000142
87 84 4.6666666666666821
87 85 0.0000000000000229
87 86 -4.6666666666666679
87 87 29.3333333333333570
87 88 -9.3333333333333641
87 89 -2.6666666666667780
87 90 4.6666666666666918
87 119 0.0000000000000000
87 120 0.0000000000000000
87 123 -2.6666666666666727
87 124 4.6666666666666661
87 125 -11.9999999999999822
87 126 4.6666666666667052
88 51 0.0000000000000000
88 52 0.0000000000000000
88 77 -4.6666666666666803
88 78 0.0000000000000042
88 83 4.6666666666666661
88 84 -2.6666666666666696
88 85 -4.6666666666666679
88 86 0.0000000000000238
88 87 -9.3333333333333641
88 88 29.3333333333333748
88 89 4.6666666666667052
88 90 -11.9999999999999929
88 119 0.0000000000000000
88 120 0.0000000000000000
88 123 4.6666666666666821
88 124 -12.0000000000000266
88 125 4.6666666666666918
88 126 -2.6666666666667744
89 51 0.0000000000000000
89 52 0.0000000000000000
89 77 0.0000000000000000
89 78 0.0000000000000000
89 83 0.0000000000000000
89 84 0.0000000000000000
89 85 0.0000000000000000
89 86 0.0000000000000000
89 87 0.0000000000000000
89 88 0.0000000000000000
89 89 1.0000000000000000
89 90 0.0000000000000000
90 51 0.0000000000000000
90 52 0.0000000000000000
90 77 0.0000000000000000
90 78 0.0000000000000000
90 83 0.0000000000000000
90 84 0.0000000000000000
90 85 0.0000000000000000
90 86 0.0000000000000000
90 87 0.0000000000000000
90 88 0.0000000000000000
90 89 0.0000000000000000
90 90 1.0000000000000000
91 57 0.0000000000000000
91 58 0.0000000000000000
91 91 1.0000000000000000
91 92 0.0000000000000000
91 93 0.0000000000000000
91 94 0.0000000000000000
91 95 0.0000000000000000
91 96 0.0000000000000000
91 97 0.0000000000000000
91 98 0.0000000000000000
91 99 0.0000000000000000
91 100 0.0000000000000000
91 133 0.0000000000000000
91 134 0.0000000000000000
91 135 0.0000000000000000
91 136 0.0000000000000000
91 137 0.0000000000000000
91 138 0.0000000000000000
92 57 0.0000000000000000
92 58 0.0000000000000000
92 91 0.0000000000000000
92 92 1.0000000000000000
92 93 0.0000000000000000
92 94 0.0000000000000000
92 95 0.0000000000000000
92 96 0.0000000000000000
92 97 0.0000000000000000
92 98 0.0000000000000000
92 99 0.0000000000000000
92 100 0.0000000000000000
92 133 0.0000000000000000
92 134 0.0000000000000000
92 135 0.0000000000000000
92 136 0.0000000000000000
92 137 0.0000000000000000
92 138 0.0000000000000000
93 57 3.0000000000000115
93 58 -1.1666666666666750
93 59 0.6666666666666804
93 60 -1.1666666666666750
93 61 0.0000000000000000
93 62 0.0000000000000000
93 91 -0.0000000000000100
93 92 1.1666666666666647
93 93 21.9999999999999964
93 94 -6.9999999999999991
93 95 0.0000000000000229
93 96 -4.6666666666666661
93 97 -12.0000000000000107
93 98 4.6666666666666750
93 99 0.0000000000000000
93 100 0.0000000000000000
93 101 -2.6666666666666732
93 102 4.6666666666666599
93 103 -0.0000000000000100
93 104 1.1666666666666647
93 105 0.0000000000000033
93 106 -4.6666666666666785
93 107 0.0000000000000000
93 108 0.0000000000000000
93 133 0.6666666666666804
93 134 -1.1666666666666747
93 135 -2.6666666666666803
93 136 4.6666666666666741
93 137 0.0000000000000000
93 138 0.0000000000000000
93 139 3.0000000000000115
93 140 -1.1666666666666747
93 141 0.0000000000000000
93 142 0.0000000000000000
93 143 -11.9999999999999893
93 144 4.6666666666666714
93 145 0.0000000000000000
93 146 0.0000000000000000
94 57 -1.1666666666666747
94 58 0.6666666666666804
94 59 -1.1666666666666747
94 60 3.0000000000000115
94 61 0.0000000000000000
94 62 0.0000000000000000
94 91 1.1666666666666647
94 92 -0.0000000000000100
94 93 -6.9999999999999991
94 94 21.9999999999999964
94 95 -4.6666666666666661
94 96 0.0000000000000229
94 97 4.6666666666666741
94 98 -2.6666666666666803
94 99 0.0000000000000000
94 100 0.0000000000000000
94 101 4.6666666666666714
94 102 -11.9999999999999893
94 103 1.1666666666666647
94 104 -0.0000000000000100
94 105 -4.6666666666666785
94 106 0.0000000000000033
94 107 0.0000000000000000
94 108 0.0000000000000000
94 133 -1.1666666666666750
94 134 3.0000000000000115
94 135 4.6666666666666750
94 136 -12.0000000000000107
94 137 0.0000000000000000
94 138 0.0000000000000000
94 139 -1.1666666666666750
94 140 0.6666666666666804
94 141 0.0000000000000000
94 142 0.0000000000000000
94 143 4.6666666666666599
94 144 -2.6666666666666732
94 145 0.0000000000000000
94 146 0.0000000000000000
95 57 0.0000000000000000
95 58 0.0000000000000000
95 91 0.0000000000000033
95 92 -4.6666666666666785
95 93 0.0000000000000229
95 94 -4.6666666666666661
95 95 29.3333333333333606
95 96 -9.3333333333333641
95 97 -2.6666666666667771
95 98 4.6666666666666909
95 99 -12.0000000000000178
95 100 4.6666666666666821
95 133 0.0000000000000000
95 134 0.0000000000000000
95 135 -11.9999999999999858
95 136 4.6666666666667052
95 137 -2.6666666666666705
95 138 4.6666666666666652
96 57 0.0000000000000000
96 58 0.0000000000000000
96 91 -4.6666666666666785
96 92 0.0000000000000033
96 93 -4.6666666666666661
96 94 0.0000000000000229
96 95 -9.3333333333333641
96 96 29.3333333333333606
96 97 4.6666666666667052
96 98 -11.9999999999999858
96 99 4.6666666666666652
96 100 -2.6666666666666705
96 133 0.0000000000000000
96 134 0.0000000000000000
96 135 4.6666666666666909
96 136 -2.6666666666667771
96 137 4.6666666666666821
96 138 -12.0000000000000178
97 57 -11.9999999999999893
97 58 4.6666666666666599
97 59 0.0000000000000000
97 60 0.0000000000000000
97 61 -2.6666666666666705
97 62 4.6666666666666821
97 91 0.0000000000000000
97 92 0.0000000000000000
97 93 -12.0000000000000107
97 94 4.6666666666666741
97 95 -2.6666666666667753
97 96 4.6666666666667052
97 97 29.3333333333333286
97 98 -9.3333333333333925
97 99 0.0000000000000622
97 100 -4.6666666666666581
97 101 0.0000000000000138
97 102 -4.6666666666666581
98 57 4.6666666666666714
98 58 -2.6666666666666732
98 59 0.0000000000000000
98 60 0.0000000000000000
98 61 4.6666666666666652
98 62 -12.0000000000000178
98 91 0.0000000000000000
98 92 0.0000000000000000
98 93 4.6666666666666750
98 94 -2.6666666666666803
98 95 4.6666666666666909
98 96 -11.9999999999999858
98 97 -9.3333333333333908
98 98 29.3333333333333037
98 99 -4.6666666666666554
98 100 0.0000000000000138
98 101 -4.6666666666666554
98 102 0.0000000000000622
99 57 0.0000000000000000
99 58 0.0000000000000000
99 91 0.0000000000000000
99 92 0.0000000000000000
99 93 0.0000000000000000
99 94 0.0000000000000000
99 95 0.0000000000000000
99 96 0.0000000000000000
99 97 0.0000000000000000
99 98 0.0000000000000000
99 99 1.0000000000000000
99 100 0.0000000000000000
100 57 0.0000000000000000
100 58 0.0000000000000000
100 91 0.0000000000000000
100 92 0.0000000000000000
100 93 0.0000000000000000
100 94 0.0000000000000000
100 95 0.0000000000000000
100 96 0.0000000000000000
100 97 0.0000000000000000
100 98 0.0000000000000000
100 99 0.0000000000000000
100 100 1.0000000000000000
101 57 0.0000000000000000
101 58 0.0000000000000000
101 59 -2.6666666666666803
101 60 4.6666666666666750
101 61 -11.9999999999999858
101 62 4.6666666666666909
101 93 -2.6666666666666732
101 94 4.6666666666666714
101 97 0.0000000000000138
101 98 -4.6666666666666554
101 101 29.3333333333333037
101 102 -9.3333333333333908
101 103 0.0000000000000000
101 104 0.0000000000000000
101 105 -12.0000000000000178
101 106 4.6666666666666652
101 107 0.0000000000000622
101 108 -4.6666666666666554
102 57 0.0000000000000000
102 58 0.0000000000000000
102 59 4.6666666666666741
102 60 -12.0000000000000107
102 61 4.6666666666667052
102 62 -2.6666666666667753
102 93 4.6666666666666599
102 94 -11.9999999999999893
102 97 -4.6666666666666581
102 98 0.0000000000000622
102 101 -9.3333333333333925
102 102 29.3333333333333286
102 103 0.0000000000000000
102 104 0.0000000000000000
102 105 4.6666666666666821
102 106 -2.6666666666666705
102 107 -4.6666666666666581
102 108 0.0000000000000138
103 59 3.0000000000000115
103 60 -1.1666666666666750
103 69 0.6666666666666807
103 70 -1.1666666666666752
103 71 0.0000000000000000
103 72 0.0000000000000000
103 93 -0.0000000000000100
103 94 1.1666666666666647
103 101 0.0000000000000000
103 102 0.0000000000000000
103 103 22.0000000000000000
103 104 -7.0000000000000000
103 105 0.0000000000000229
103 106 -4.6666666666666661
103 107 -12.0000000000000107
103 108 4.6666666666666750
103 109 -2.6666666666666741
103 110 4.6666666666666599
103 111 -0.0000000000000100
103 112 1.1666666666666650
103 113 0.0000000000000033
103 114 -4.6666666666666803
103 115 0.0000000000000000
103 116 0.0000000000000000
103 139 0.6666666666666808
103 140 -1.1666666666666745
103 143 0.0000000000000000
103 144 0.0000000000000000
103 145 -2.6666666666666812
103 146 4.6666666666666750
103 147 3.0000000000000129
103 148 -1.1666666666666750
103 149 0.0000000000000000
103 150 0.0000000000000000
103 151 -11.9999999999999929
103 152 4.6666666666666723
103 153 0.0000000000000000
103 154 0.0000000000000000
104 59 -1.1666666666666745
104 60 0.6666666666666808
104 69 -1.1666666666666750
104 70 3.0000000000000129
104 71 0.0000000000000000
104 72 0.0000000000000000
104 93 1.1666666666666647
104 94 -0.0000000000000100
104 101 0.0000000000000000
104 102 0.0000000000000000
104 103 -7.0000000000000000
104 104 22.0000000000000000
104 105 -4.6666666666666661
104 106 0.0000000000000229
104 107 4.6666666666666750
104 108 -2.6666666666666812
104 109 4.6666666666666723
104 110 -11.9999999999999929
104 111 1.1666666666666650
104 112 -0.0000000000000100
104 113 -4.6666666666666803
104 114 0.0000000000000033
104 115 0.0000000000000000
104 116 0.0000000000000000
104 139 -1.1666666666666750
104 140 3.0000000000000115
104 143 0.0000000000000000
104 144 0.0000000000000000
104 145 4.6666666666666750
104 146 -12.0000000000000107
104 147 -1.1666666666666752
104 148 0.6666666666666807
104 149 0.0000000000000000
104 150 0.0000000000000000
104 151 4.6666666666666599
104 152 -2.6666666666666741
104 153 0.0000000000000000
104 154 0.0000000000000000
105 59 0.0000000000000000
105 60 0.0000000000000000
105 93 0.0000000000000033
105 94 -4.6666666666666785
105 101 -12.0000000000000178
105 102 4.6666666666666821
105 103 0.0000000000000229
105 104 -4.6666666666666661
105 105 29.3333333333333606
105 106 -9.3333333333333641
105 107 -2.6666666666667771
105 108 4.6666666666666909
105 139 0.0000000000000000
105 140 0.0000000000000000
105 143 -2.6666666666666705
105 144 4.6666666666666652
105 145 -11.9999999999999858
105 146 4.6666666666667052
106 59 0.0000000000000000
106 60 0.0000000000000000
106 93 -4.6666666666666785
106 94 0.0000000000000033
106 101 4.6666666666666652
106 102 -2.6666666666666705
106 103 -4.6666666666666661
106 104 0.0000000000000229
106 105 -9.3333333333333641
106 106 29.3333333333333606
106 107 4.6666666666667052
106 108 -11.9999999999999858
106 139 0.0000000000000000
106 140 0.0000000000000000
106 143 4.6666666666666821
106 144 -12.0000000000000178
106 145 4.6666666666666909
106 146 -2.6666666666667771
107 59 -11.9999999999999893
107 60 4.6666666666666590
107 69 0.0000000000000000
107 70 0.0000000000000000
107 71 -2.6666666666666714
107 72 4.6666666666666821
107 93 0.0000000000000000
107 94 0.0000000000000000
107 101 0.0000000000000622
107 102 -4.6666666666666581
107 103 -12.0000000000000107
107 104 4.6666666666666750
107 105 -2.6666666666667753
107 106 4.6666666666667052
107 107 29.3333333333333286
107 108 -9.3333333333333925
107 109 0.0000000000000138
107 110 -4.6666666666666590
108 59 4.6666666666666714
108 60 -2.6666666666666741
108 69 0.0000000000000000
108 70 0.0000000000000000
108 71 4.6666666666666661
108 72 -12.0000000000000213
108 93 0.0000000000000000
108 94 0.0000000000000000
108 101 -4.6666666666666554
108 102 0.0000000000000138
108 103 4.6666666666666750
108 104 -2.6666666666666812
108 105 4.6666666666666909
108 106 -11.9999999999999858
108 107 -9.3333333333333925
108 108 29.3333333333333108
108 109 -4.6666666666666572
108 110 0.0000000000000604
109 59 0.0000000000000000
109 60 0.0000000000000000
109 69 -2.6666666666666803
109 70 4.6666666666666758
109 71 -11.9999999999999858
109 72 4.6666666666666909
109 103 -2.6666666666666741
109 104 4.6666666666666723
109 107 0.0000000000000138
109 108 -4.6666666666666572
109 109 29.3333333333333108
109 110 -9.3333333333333925
109 111 0.0000000000000000
109 112 0.0000000000000000
109 113 -12.0000000000000213
109 114 4.6666666666666670
109 115 0.0000000000000604
109 116 -4.6666666666666572
110 59 0.0000000000000000
110 60 0.0000000000000000
110 69 4.6666666666666758
110 70 -12.0000000000000160
110 71 4.6666666666667052
110 72 -2.6666666666667780
110 103 4.6666666666666599
110 104 -11.9999999999999929
110 107 -4.6666666666666590
110 108 0.0000000000000604
110 109 -9.3333333333333961
110 110 29.3333333333333428
110 111 0.0000000000000000
110 112 0.0000000000000000
110 113 4.6666666666666829
110 114 -2.6666666666666714
110 115 -4.6666666666666599
110 116 0.0000000000000138
111 69 3.0000000000000133
111 70 -1.1666666666666752
111 77 0.6666666666666807
111 78 -1.1666666666666754
111 79 0.0000000000000000
111 80 0.0000000000000000
111 103 -0.0000000000000100
111 104 1.1666666666666650
111 109 0.0000000000000000
111 110 0.0000000000000000
111 111 22.0000000000000000
111 112 -7.0000000000000000
111 113 0.0000000000000229
111 114 -4.6666666666666679
111 115 -12.0000000000000178
111 116 4.6666666666666767
111 117 -2.6666666666666741
111 118 4.6666666666666607
111 119 -0.0000000000000103
111 120 1.1666666666666647
111 121 0.0000000000000042
111 122 -4.6666666666666803
111 123 0.0000000000000000
111 124 0.0000000000000000
111 147 0.6666666666666810
111 148 -1.1666666666666747
111 151 0.0000000000000000
111 152 0.0000000000000000
111 153 -2.6666666666666821
111 154 4.6666666666666758
111 155 3.0000000000000120
111 156 -1.1666666666666750
111 157 0.0000000000000000
111 158 0.0000000000000000
111 159 -11.9999999999999911
111 160 4.6666666666666732
111 161 0.0000000000000000
111 162 0.0000000000000000
112 69 -1.1666666666666747
112 70 0.6666666666666810
112 77 -1.1666666666666750
112 78 3.0000000000000120
112 79 0.0000000000000000
112 80 0.0000000000000000
112 103 1.1666666666666650
112 104 -0.0000000000000100
112 109 0.0000000000000000
112 110 0.0000000000000000
112 111 -7.0000000000000000
112 112 22.0000000000000036
112 113 -4.6666666666666679
112 114 0.0000000000000229
112 115 4.6666666666666758
112 116 -2.6666666666666821
112 117 4.6666666666666732
112 118 -11.9999999999999911
112 119 1.1666666666666647
112 120 -0.0000000000000103
112 121 -4.6666666666666803
112 122 0.0000000000000042
112 123 0.0000000000000000
112 124 0.0000000000000000
112 147 -1.1666666666666752
112 148 3.0000000000000133
112 151 0.0000000000000000
112 152 0.0000000000000000
112 153 4.6666666666666767
112 154 -12.0000000000000178
112 155 -1.1666666666666754
112 156 0.6666666666666807
112 157 0.0000000000000000
112 158 0.0000000000000000
112 159 4.6666666666666607
112 160 -2.6666666666666741
112 161 0.0000000000000000
112 162 0.0000000000000000
113 69 0.0000000000000000
113 70 0.0000000000000000
113 103 0.0000000000000033
113 104 -4.6666666666666803
113 109 -12.0000000000000213
113 110 4.6666666666666829
113 111 0.0000000000000229
113 112 -4.6666666666666679
113 113 29.3333333333333677
113 114 -9.3333333333333641
113 115 -2.6666666666667762
113 116 4.6666666666666909
113 147 0.0000000000000000
113 148 0.0000000000000000
113 151 -2.6666666666666714
113 152 4.6666666666666670
113 153 -11.9999999999999893
113 154 4.6666666666667043
114 69 0.0000000000000000
114 70 0.0000000000000000
114 103 -4.6666666666666803
114 104 0.0000000000000033
114 109 4.6666666666666670
114 110 -2.6666666666666714
114 111 -4.6666666666666679
114 112 0.0000000000000229
114 113 -9.3333333333333641
114 114 29.3333333333333677
114 115 4.6666666666667043
114 116 -11.9999999999999893
114 147 0.0000000000000000
114 148 0.0000000000000000
114 151 4.6666666666666829
114 152 -12.0000000000000213
114 153 4.6666666666666909
114 154 -2.6666666666667762
115 69 -11.9999999999999964
115 70 4.6666666666666607
115 77 0.0000000000000000
115 78 0.0000000000000000
115 79 -2.6666666666666696
115 80 4.6666666666666821
115 103 0.0000000000000000
115 104 0.0000000000000000
115 109 0.0000000000000604
115 110 -4.6666666666666599
115 111 -12.0000000000000178
115 112 4.6666666666666758
115 113 -2.6666666666667762
115 114 4.6666666666667043
115 115 29.3333333333333428
115 116 -9.3333333333333925
115 117 0.0000000000000138
115 118 -4.6666666666666590
116 69 4.6666666666666723
116 70 -2.6666666666666750
116 77 0.0000000000000000
116 78 0.0000000000000000
116 79 4.6666666666666661
116 80 -12.0000000000000142
116 103 0.0000000000000000
116 104 0.0000000000000000
116 109 -4.6666666666666572
116 110 0.0000000000000138
116 111 4.6666666666666767
116 112 -2.6666666666666821
116 113 4.6666666666666901
116 114 -11.9999999999999893
116 115 -9.3333333333333925
116 116 29.3333333333333108
116 117 -4.6666666666666572
116 118 0.0000000000000604
117 69 0.0000000000000000
117 70 0.0000000000000000
117 77 -2.6666666666666803
117 78 4.6666666666666767
117 79 -11.9999999999999929
117 80 4.6666666666666909
117 111 -2.6666666666666741
117 112 4.6666666666666732
117 115 0.0000000000000138
117 116 -4.6666666666666572
117 117 29.3333333333333144
117 118 -9.3333333333333943
117 119 0.0000000000000000
117 120 0.0000000000000000
117 121 -12.0000000000000195
117 122 4.6666666666666661
117 123 0.0000000000000639
117 124 -4.6666666666666572
118 69 0.0000000000000000
118 70 0.0000000000000000
118 77 4.6666666666666767
118 78 -12.0000000000000124
118 79 4.6666666666667052
118 80 -2.6666666666667780
118 111 4.6666666666666607
118 112 -11.9999999999999911
118 115 -4.6666666666666590
118 116 0.0000000000000604
118 117 -9.3333333333333961
118 118 29.3333333333333357
118 119 0.0000000000000000
118 120 0.0000000000000000
118 121 4.6666666666666821
118 122 -2.6666666666666710
118 123 -4.6666666666666590
118 124 0.0000000000000138
119 77 3.0000000000000115
119 78 -1.1666666666666750
119 85 0.6666666666666810
119 86 -1.1666666666666752
119 87 0.0000000000000000
119 88 0.0000000000000000
119 111 -0.0000000000000103
119 112 1.1666666666666647
119 117 0.0000000000000000
119 118 0.0000000000000000
119 119 22.0000000000000000
119 120 -7.0000000000000000
119 121 0.0000000000000238
119 122 -4.6666666666666679
119 123 -12.0000000000000124
119 124 4.6666666666666758
119 125 -2.6666666666666745
119 126 4.6666666666666599
119 127 -0.0000000000000100
119 128 1.1666666666666650
119 129 0.0000000000000033
119 130 -4.6666666666666803
119 131 0.0000000000000000
119 132 0.0000000000000000
119 155 0.6666666666666803
119 156 -1.1666666666666747
119 159 0.0000000000000000
119 160 0.0000000000000000
119 161 -2.6666666666666790
119 162 4.6666666666666750
119 163 3.0000000000000133
119 164 -1.1666666666666750
119 165 0.0000000000000000
119 166 0.0000000000000000
119 167 -11.9999999999999964
119 168 4.6666666666666723
119 169 0.0000000000000000
119 170 0.0000000000000000
120 77 -1.1666666666666747
120 78 0.6666666666666803
120 85 -1.1666666666666750
120 86 3.0000000000000133
120 87 0.0000000000000000
120 88 0.0000000000000000
120 111 1.1666666666666647
120 112 -0.0000000000000103
120 117 0.0000000000000000
120 118 0.0000000000000000
120 119 -7.0000000000000000
120 120 22.0000000000000000
120 121 -4.6666666666666679
120 122 0.0000000000000238
120 123 4.6666666666666750
120 124 -2.6666666666666790
120 125 4.6666666666666723
120 126 -11.9999999999999964
120 127 1.1666666666666650
120 128 -0.0000000000000100
120 129 -4.6666666666666803
120 130 0.0000000000000033
120 131 0.0000000000000000
120 132 0.0000000000000000
120 155 -1.1666666666666750
120 156 3.0000000000000115
120 159 0.0000000000000000
120 160 0.0000000000000000
120 161 4.6666666666666758
120 162 -12.0000000000000124
120 163 -1.1666666666666752
120 164 0.6666666666666810
120 165 0.0000000000000000
120 166 0.0000000000000000
120 167 4.6666666666666599
120 168 -2.6666666666666745
120 169 0.0000000000000000
120 170 0.0000000000000000
121 77 0.0000000000000000
121 78 0.0000000000000000
121 111 0.0000000000000042
121 112 -4.6666666666666803
121 117 -12.0000000000000195
121 118 4.6666666666666821
121 119 0.0000000000000238
121 120 -4.6666666666666679
121 121 29.3333333333333712
121 122 -9.3333333333333641
121 123 -2.6666666666667798
121 124 4.6666666666666918
121 155 0.0000000000000000
121 156 0.0000000000000000
121 159 -2.6666666666666710
121 160 4.6666666666666661
121 161 -11.9999999999999911
121 162 4.6666666666667052
122 77 0.0000000000000000
122 78 0.0000000000000000
122 111 -4.6666666666666803
122 112 0.0000000000000042
122 117 4.6666666666666661
122 118 -2.6666666666666710
122 119 -4.6666666666666679
122 120 0.0000000000000238
122 121 -9.3333333333333641
122 122 29.3333333333333712
122 123 4.6666666666667052
122 124 -11.9999999999999911
122 155 0.0000000000000000
122 156 0.0000000000000000
122 159 4.6666666666666821
122 160 -12.0000000000000195
122 161 4.6666666666666918
122 162 -2.6666666666667798
123 77 -11.9999999999999893
123 78 4.6666666666666599
123 85 0.0000000000000000
123 86 0.0000000000000000
123 87 -2.6666666666666727
123 88 4.6666666666666821
123 111 0.0000000000000000
123 112 0.0000000000000000
123 117 0.0000000000000639
123 118 -4.6666666666666590
123 119 -12.0000000000000124
123 120 4.6666666666666750
123 121 -2.6666666666667798
123 122 4.6666666666667052
123 123 29.3333333333333357
123 124 -9.3333333333333943
123 125 0.0000000000000138
123 126 -4.6666666666666590
124 77 4.6666666666666714
124 78 -2.6666666666666718
124 85 0.0000000000000000
124 86 0.0000000000000000
124 87 4.6666666666666661
124 88 -12.0000000000000266
124 111 0.0000000000000000
124 112 0.0000000000000000
124 117 -4.6666666666666572
124 118 0.0000000000000138
124 119 4.6666666666666758
124 120 -2.6666666666666790
124 121 4.6666666666666909
124 122 -11.9999999999999911
124 123 -9.3333333333333925
124 124 29.3333333333333179
124 125 -4.6666666666666572
124 126 0.0000000000000639
125 77 0.0000000000000000
125 78 0.0000000000000000
125 85 -2.6666666666666807
125 86 4.6666666666666758
125 87 -11.9999999999999822
125 88 4.6666666666666909
125 119 -2.6666666666666745
125 120 4.6666666666666723
125 123 0.0000000000000138
125 124 -4.6666666666666572
125 125 29.3333333333333073
125 126 -9.3333333333333925
125 127 0.0000000000000000
125 128 0.0000000000000000
125 129 -12.0000000000000213
125 130 4.6666666666666670
125 131 0.0000000000000604
125 132 -4.6666666666666572
126 77 0.0000000000000000
126 78 0.0000000000000000
126 85 4.6666666666666758
126 86 -12.0000000000000178
126 87 4.6666666666667052
126 88 -2.6666666666667744
126 119 4.6666666666666599
126 120 -11.9999999999999964
126 123 -4.6666666666666590
126 124 0.0000000000000639
126 125 -9.3333333333333961
126 126 29.3333333333333428
126 127 0.0000000000000000
126 128 0.0000000000000000
126 129 4.6666666666666829
126 130 -2.6666666666666714
126 131 -4.6666666666666599
126 132 0.0000000000000138
127 85 0.0000000000000000
127 86 0.0000000000000000
127 119 0.0000000000000000
127 120 0.0000000000000000
127 125 0.0000000000000000
127 126 0.0000000000000000
127 127 1.0000000000000000
127 128 0.0000000000000000
127 129 0.0000000000000000
127 130 0.0000000000000000
127 131 0.0000000000000000
127 132 0.0000000000000000
127 163 0.0000000000000000
127 164 0.0000000000000000
127 167 0.0000000000000000
127 168 0.0000000000000000
127 169 0.0000000000000000
127 170 0.0000000000000000
128 85 0.0000000000000000
128 86 0.0000000000000000
128 119 0.0000000000000000
128 120 0.0000000000000000
128 125 0.0000000000000000
128 126 0.0000000000000000
128 127 0.0000000000000000
128 128 1.0000000000000000
128 129 0.0000000000000000
128 130 0.0000000000000000
128 131 0.0000000000000000
128 132 0.0000000000000000
128 163 0.0000000000000000
128 164 0.0000000000000000
128 167 0.0000000000000000
128 168 0.0000000000000000
128 169 0.0000000000000000
128 170 0.0000000000000000
129 85 0.0000000000000000
129 86 0.0000000000000000
129 119 0.0000000000000033
129 120 -4.6666666666666803
129 125 -12.0000000000000213
129 126 4.6666666666666829
129 127 0.0000000000000229
129 128 -4.6666666666666679
129 129 29.3333333333333677
129 130 -9.3333333333333641
129 131 -2.6666666666667762
129 132 4.6666666666666909
129 163 0.0000000000000000
129 164 0.0000000000000000
129 167 -2.6666666666666714
129 168 4.6666666666666670
129 169 -11.9999999999999893
129 170 4.6666666666667043
130 85 0.0000000000000000
130 86 0.0000000000000000
130 119 -4.6666666666666803
130 120 0.0000000000000033
130 125 4.6666666666666670
130 126 -2.6666666666666714
130 127 -4.6666666666666679
130 128 0.0000000000000229
130 129 -9.3333333333333641
130 130 29.3333333333333677
130 131 4.6666666666667043
130 132 -11.9999999999999893
130 163 0.0000000000000000
130 164 0.0000000000000000
130 167 4.6666666666666829
130 168 -12.0000000000000213
130 169 4.6666666666666909
130 170 -2.6666666666667762
131 85 0.0000000000000000
131 86 0.0000000000000000
131 119 0.0000000000000000
131 120 0.0000000000000000
131 125 0.0000000000000000
131 126 0.0000000000000000
131 127 0.0000000000000000
131 128 0.0000000000000000
131 129 0.0000000000000000
131 130 0.0000000000000000
131 131 1.0000000000000000
131 132 0.0000000000000000
132 85 0.0000000000000000
132 86 0.0000000000000000
132 119 0.0000000000000000
132 120 0.0000000000000000
132 125 0.0000000000000000
132 126 0.0000000000000000
132 127 0.0000000000000000
132 128 0.0000000000000000
132 129 0.0000000000000000
132 130 0.0000000000000000
132 131 0.0000000000000000
132 132 1.0000000000000000
133 91 0.0000000000000000
133 92 0.0000000000000000
133 93 0.0000000000000000
133 94 0.0000000000000000
133 95 0.0000000000000000
133 96 0.0000000000000000
133 133 1.0000000000000000
133 134 0.0000000000000000
133 135 0.0000000000000000
133 136 0.0000000000000000
133 137 0.0000000000000000
133 138 0.0000000000000000
133 139 0.0000000000000000
133 140 0.0000000000000000
133 141 0.0000000000000000
133 142 0.0000000000000000
133 143 0.0000000000000000
133 144 0.0000000000000000
133 171 0.0000000000000000
133 172 0.0000000000000000
133 173 0.0000000000000000
133 174 0.0000000000000000
133 175 0.0000000000000000
133 176 0.0000000000000000
134 91 0.0000000000000000
134 92 0.0000000000000000
134 93 0.0000000000000000
134 94 0.0000000000000000
134 95 0.0000000000000000
134 96 0.0000000000000000
134 133 0.0000000000000000
134 134 1.0000000000000000
134 135 0.0000000000000000
134 136 0.0000000000000000
134 137 0.0000000000000000
134 138 0.0000000000000000
134 139 0.0000000000000000
134 140 0.0000000000000000
134 141 0.0000000000000000
134 142 0.0000000000000000
134 143 0.0000000000000000
134 144 0.0000000000000000
134 171 0.0000000000000000
134 172 0.0000000000000000
134 173 0.0000000000000000
134 174 0.0000000000000000
134 175 0.0000000000000000
134 176 0.0000000000000000
135 91 0.0000000000000000
135 92 0.0000000000000000
135 93 -2.6666666666666803
135 94 4.6666666666666750
135 95 -11.9999999999999858
135 96 4.6666666666666909
135 133 -2.6666666666666732
135 134 4.6666666666666714
135 135 29.3333333333333037
135 136 -9.3333333333333908
135 137 0.0000000000000138
135 138 -4.6666666666666554
135 139 0.0000000000000000
135 140 0.0000000000000000
135 141 -12.0000000000000178
135 142 4.6666666666666652
135 143 0.0000000000000622
135 144 -4.6666666666666554
136 91 0.0000000000000000
136 92 0.0000000000000000
136 93 4.6666666666666741
136 94 -12.0000000000000107
136 95 4.6666666666667052
136 96 -2.6666666666667753
136 133 4.6666666666666599
136 134 -11.9999999999999893
136 135 -9.3333333333333925
136 136 29.3333333333333286
136 137 -4.6666666666666581
136 138 0.0000000000000622
136 139 0.0000000000000000
136 140 0.0000000000000000
136 141 4.6666666666666821
136 142 -2.6666666666666705
136 143 -4.6666666666666581
136 144 0.0000000000000138
137 91 0.0000000000000000
137 92 0.0000000000000000
137 93 0.0000000000000000
137 94 0.0000000000000000
137 95 0.0000000000000000
137 96 0.0000000000000000
137 133 0.0000000000000000
137 134 0.0000000000000000
137 135 0.0000000000000000
137 136 0.0000000000000000
137 137 1.0000000000000000
137 138 0.0000000000000000
138 91 0.0000000000000000
138 92 0.0000000000000000
138 93 0.0000000000000000
138 94 0.0000000000000000
138 95 0.0000000000000000
138 96 0.0000000000000000
138 133 0.0000000000000000
138 134 0.0000000000000000
138 135 0.0000000000000000
138 136 0.0000000000000000
138 137 0.0000000000000000
138 138 1.0000000000000000
139 93 3.0000000000000115
139 94 -1.1666666666666750
139 103 0.6666666666666808
139 104 -1.1666666666666750
139 105 0.0000000000000000
139 106 0.0000000000000000
139 133 -0.0000000000000100
139 134 1.1666666666666647
139 135 0.0000000000000000
139 136 0.0000000000000000
139 139 22.0000000000000000
139 140 -7.0000000000000000
139 141 0.0000000000000229
139 142 -4.6666666666666661
139 143 -12.0000000000000107
139 144 4.6666666666666750
139 145 -2.6666666666666741
139 146 4.6666666666666590
139 147 -0.0000000000000100
139 148 1.1666666666666647
139 149 0.0000000000000033
139 150 -4.6666666666666803
139 151 0.0000000000000000
139 152 0.0000000000000000
139 171 0.6666666666666808
139 172 -1.1666666666666745
139 173 -2.6666666666666812
139 174 4.6666666666666750
139 175 0.0000000000000000
139 176 0.0000000000000000
139 177 3.0000000000000133
139 178 -1.1666666666666747
139 179 0.0000000000000000
139 180 0.0000000000000000
139 181 -11.9999999999999964
139 182 4.6666666666666714
139 183 0.0000000000000000
139 184 0.0000000000000000
140 93 -1.1666666666666747
140 94 0.6666666666666804
140 103 -1.1666666666666745
140 104 3.0000000000000115
140 105 0.0000000000000000
140 106 0.0000000000000000
140 133 1.1666666666666647
140 134 -0.0000000000000100
140 135 0.0000000000000000
140 136 0.0000000000000000
140 139 -7.0000000000000000
140 140 21.9999999999999964
140 141 -4.6666666666666661
140 142 0.0000000000000229
140 143 4.6666666666666741
140 144 -2.6666666666666803
140 145 4.6666666666666714
140 146 -11.9999999999999893
140 147 1.1666666666666647
140 148 -0.0000000000000100
140 149 -4.6666666666666803
140 150 0.0000000000000033
140 151 0.0000000000000000
140 152 0.0000000000000000
140 171 -1.1666666666666750
140 172 3.0000000000000115
140 173 4.6666666666666750
140 174 -12.0000000000000107
140 175 0.0000000000000000
140 176 0.0000000000000000
140 177 -1.1666666666666750
140 178 0.6666666666666805
140 179 0.0000000000000000
140 180 0.0000000000000000
140 181 4.6666666666666599
140 182 -2.6666666666666741
140 183 0.0000000000000000
140 184 0.0000000000000000
141 93 0.0000000000000000
141 94 0.0000000000000000
141 133 0.0000000000000033
141 134 -4.6666666666666785
141 135 -12.0000000000000178
141 136 4.6666666666666821
141 139 0.0000000000000229
141 140 -4.6666666666666661
141 141 29.3333333333333606
141 142 -9.3333333333333641
141 143 -2.6666666666667771
141 144 4.6666666666666909
141 171 0.0000000000000000
141 172 0.0000000000000000
141 173 -11.9999999999999858
141 174 4.6666666666667052
141 175 -2.6666666666666705
141 176 4.6666666666666652
142 93 0.0000000000000000
142 94 0.0000000000000000
142 133 -4.6666666666666785
142 134 0.0000000000000033
142 135 4.6666666666666652
142 136 -2.6666666666666705
142 139 -4.6666666666666661
142 140 0.0000000000000229
142 141 -9.3333333333333641
142 142 29.3333333333333606
142 143 4.6666666666667052
142 144 -11.9999999999999858
142 171 0.0000000000000000
142 172 0.0000000000000000
142 173 4.6666666666666909
142 174 -2.6666666666667771
142 175 4.6666666666666821
142 176 -12.0000000000000178
143 93 -11.9999999999999893
143 94 4.6666666666666599
143 103 0.0000000000000000
143 104 0.0000000000000000
143 105 -2.6666666666666705
143 106 4.6666666666666821
143 133 0.0000000000000000
143 134 0.0000000000000000
143 135 0.0000000000000622
143 136 -4.6666666666666581
143 139 -12.0000000000000107
143 140 4.6666666666666741
143 141 -2.6666666666667753
143 142 4.6666666666667052
143 143 29.3333333333333286
143 144 -9.3333333333333925
143 145 0.0000000000000138
143 146 -4.6666666666666581
144 93 4.6666666666666714
144 94 -2.6666666666666732
144 103 0.0000000000000000
144 104 0.0000000000000000
144 105 4.6666666666666652
144 106 -12.0000000000000178
144 133 0.0000000000000000
144 134 0.0000000000000000
144 135 -4.6666666666666554
144 136 0.0000000000000138
144 139 4.6666666666666750
144 140 -2.6666666666666803
144 141 4.6666666666666909
144 142 -11.9999999999999858
144 143 -9.3333333333333908
144 144 29.3333333333333037
144 145 -4.6666666666666554
144 146 0.0000000000000622
145 93 0.0000000000000000
145 94 0.0000000000000000
145 103 -2.6666666666666812
145 104 4.6666666666666750
145 105 -11.9999999999999858
145 106 4.6666666666666909
145 139 -2.6666666666666741
145 140 4.6666666666666714
145 143 0.0000000000000138
145 144 -4.6666666666666554
145 145 29.3333333333333108
145 146 -9.3333333333333925
145 147 0.0000000000000000
145 148 0.0000000000000000
145 149 -12.0000000000000213
145 150 4.6666666666666661
145 151 0.0000000000000604
145 152 -4.6666666666666572
146 93 0.0000000000000000
146 94 0.0000000000000000
146 103 4.6666666666666750
146 104 -12.0000000000000107
146 105 4.6666666666667052
146 106 -2.6666666666667753
146 139 4.6666666666666590
146 140 -11.9999999999999893
146 143 -4.6666666666666581
146 144 0.0000000000000622
146 145 -9.3333333333333925
146 146 29.3333333333333286
146 147 0.0000000000000000
146 148 0.0000000000000000
146 149 4.6666666666666821
146 150 -2.6666666666666714
146 151 -4.6666666666666590
146 152 0.0000000000000138
147 103 3.0000000000000129
147 104 -1.1666666666666752
147 111 0.6666666666666810
147 112 -1.1666666666666752
147 113 0.0000000000000000
147 114 0.0000000000000000
147 139 -0.0000000000000100
147 140 1.1666666666666647
147 145 0.0000000000000000
147 146 0.0000000000000000
147 147 22.0000000000000000
147 148 -7.0000000000000000
147 149 0.0000000000000229
147 150 -4.6666666666666679
147 151 -12.0000000000000160
147 152 4.6666666666666758
147 153 -2.6666666666666750
147 154 4.6666666666666607
147 155 -0.0000000000000100
147 156 1.1666666666666647
147 157 0.0000000000000033
147 158 -4.6666666666666803
147 159 0.0000000000000000
147 160 0.0000000000000000
147 177 0.6666666666666806
147 178 -1.1666666666666747
147 181 0.0000000000000000
147 182 0.0000000000000000
147 183 -2.6666666666666812
147 184 4.6666666666666750
147 185 3.0000000000000115
147 186 -1.1666666666666747
147 187 0.0000000000000000
147 188 0.0000000000000000
147 189 -11.9999999999999893
147 190 4.6666666666666714
147 191 0.0000000000000000
147 192 0.0000000000000000
148 103 -1.1666666666666750
148 104 0.6666666666666807
148 111 -1.1666666666666747
148 112 3.0000000000000133
148 113 0.0000000000000000
148 114 0.0000000000000000
148 139 1.1666666666666647
148 140 -0.0000000000000100
148 145 0.0000000000000000
148 146 0.0000000000000000
148 147 -7.0000000000000000
148 148 22.0000000000000036
148 149 -4.6666666666666679
148 150 0.0000000000000229
148 151 4.6666666666666758
148 152 -2.6666666666666803
148 153 4.6666666666666723
148 154 -11.9999999999999964
148 155 1.1666666666666647
148 156 -0.0000000000000100
148 157 -4.6666666666666803
148 158 0.0000000000000042
148 159 0.0000000000000000
148 160 0.0000000000000000
148 177 -1.1666666666666750
148 178 3.0000000000000124
148 181 0.0000000000000000
148 182 0.0000000000000000
148 183 4.6666666666666750
148 184 -12.0000000000000142
148 185 -1.1666666666666752
148 186 0.6666666666666801
148 187 0.0000000000000000
148 188 0.0000000000000000
148 189 4.6666666666666607
148 190 -2.6666666666666714
148 191 0.0000000000000000
148 192 0.0000000000000000
149 103 0.0000000000000000
149 104 0.0000000000000000
149 139 0.0000000000000033
149 140 -4.6666666666666803
149 145 -12.0000000000000213
149 146 4.6666666666666821
149 147 0.0000000000000229
149 148 -4.6666666666666679
149 149 29.3333333333333712
149 150 -9.3333333333333641
149 151 -2.6666666666667780
149 152 4.6666666666666918
149 177 0.0000000000000000
149 178 0.0000000000000000
149 181 -2.6666666666666705
149 182 4.6666666666666661
149 183 -11.9999999999999929
149 184 4.6666666666667052
150 103 0.0000000000000000
150 104 0.0000000000000000
150 139 -4.6666666666666803
150 140 0.0000000000000033
150 145 4.6666666666666661
150 146 -2.6666666666666714
150 147 -4.6666666666666679
150 148 0.0000000000000229
150 149 -9.3333333333333641
150 150 29.3333333333333606
150 151 4.6666666666667052
150 152 -11.9999999999999858
150 177 0.0000000000000000
150 178 0.0000000000000000
150 181 4.6666666666666821
150 182 -12.0000000000000178
150 183 4.6666666666666918
150 184 -2.6666666666667771
151 103 -11.9999999999999929
151 104 4.6666666666666599
151 111 0.0000000000000000
151 112 0.0000000000000000
151 113 -2.6666666666666714
151 114 4.6666666666666829
151 139 0.0000000000000000
151 140 0.0000000000000000
151 145 0.0000000000000604
151 146 -4.6666666666666590
151 147 -12.0000000000000160
151 148 4.6666666666666758
151 149 -2.6666666666667780
151 150 4.6666666666667052
151 151 29.3333333333333428
151 152 -9.3333333333333961
151 153 0.0000000000000138
151 154 -4.6666666666666599
152 103 4.6666666666666723
152 104 -2.6666666666666741
152 111 0.0000000000000000
152 112 0.0000000000000000
152 113 4.6666666666666670
152 114 -12.0000000000000213
152 139 0.0000000000000000
152 140 0.0000000000000000
152 145 -4.6666666666666572
152 146 0.0000000000000138
152 147 4.6666666666666758
152 148 -2.6666666666666803
152 149 4.6666666666666909
152 150 -11.9999999999999858
152 151 -9.3333333333333925
152 152 29.3333333333333108
152 153 -4.6666666666666572
152 154 0.0000000000000604
153 103 0.0000000000000000
153 104 0.0000000000000000
153 111 -2.6666666666666821
153 112 4.6666666666666767
153 113 -11.9999999999999893
153 114 4.6666666666666901
153 147 -2.6666666666666750
153 148 4.6666666666666723
153 151 0.0000000000000138
153 152 -4.6666666666666572
153 153 29.3333333333333108
153 154 -9.3333333333333925
153 155 0.0000000000000000
153 156 0.0000000000000000
153 157 -12.0000000000000142
153 158 4.6666666666666661
153 159 0.0000000000000604
153 160 -4.6666666666666572
154 103 0.0000000000000000
154 104 0.0000000000000000
154 111 4.6666666666666758
154 112 -12.0000000000000178
154 113 4.6666666666667043
154 114 -2.6666666666667762
154 147 4.6666666666666607
154 148 -11.9999999999999964
154 151 -4.6666666666666599
154 152 0.0000000000000604
154 153 -9.3333333333333925
154 154 29.3333333333333428
154 155 0.0000000000000000
154 156 0.0000000000000000
154 157 4.6666666666666821
154 158 -2.6666666666666696
154 159 -4.6666666666666590
154 160 0.0000000000000138
155 111 3.0000000000000120
155 112 -1.1666666666666754
155 119 0.6666666666666803
155 120 -1.1666666666666750
155 121 0.0000000000000000
155 122 0.0000000000000000
155 147 -0.0000000000000100
155 148 1.1666666666666647
155 153 0.0000000000000000
155 154 0.0000000000000000
155 155 22.0000000000000036
155 156 -7.0000000000000009
155 157 0.0000000000000229
155 158 -4.6666666666666679
155 159 -12.0000000000000124
155 160 4.6666666666666767
155 161 -2.6666666666666718
155 162 4.6666666666666599
155 163 -0.0000000000000100
155 164 1.1666666666666647
155 165 0.0000000000000042
155 166 -4.6666666666666803
155 167 0.0000000000000000
155 168 0.0000000000000000
155 185 0.6666666666666810
155 186 -1.1666666666666750
155 189 0.0000000000000000
155 190 0.0000000000000000
155 191 -2.6666666666666807
155 192 4.6666666666666758
155 193 3.0000000000000133
155 194 -1.1666666666666747
155 195 0.0000000000000000
155 196 0.0000000000000000
155 197 -11.9999999999999964
155 198 4.6666666666666723
155 199 0.0000000000000000
155 200 0.0000000000000000
156 111 -1.1666666666666750
156 112 0.6666666666666807
156 119 -1.1666666666666747
156 120 3.0000000000000115
156 121 0.0000000000000000
156 122 0.0000000000000000
156 147 1.1666666666666647
156 148 -0.0000000000000100
156 153 0.0000000000000000
156 154 0.0000000000000000
156 155 -7.0000000000000009
156 156 22.0000000000000000
156 157 -4.6666666666666679
156 158 0.0000000000000238
156 159 4.6666666666666767
156 160 -2.6666666666666803
156 161 4.6666666666666714
156 162 -11.9999999999999893
156 163 1.1666666666666647
156 164 -0.0000000000000100
156 165 -4.6666666666666803
156 166 0.0000000000000033
156 167 0.0000000000000000
156 168 0.0000000000000000
156 185 -1.1666666666666752
156 186 3.0000000000000133
156 189 0.0000000000000000
156 190 0.0000000000000000
156 191 4.6666666666666758
156 192 -12.0000000000000178
156 193 -1.1666666666666752
156 194 0.6666666666666810
156 195 0.0000000000000000
156 196 0.0000000000000000
156 197 4.6666666666666607
156 198 -2.6666666666666750
156 199 0.0000000000000000
156 200 0.0000000000000000
157 111 0.0000000000000000
157 112 0.0000000000000000
157 147 0.0000000000000033
157 148 -4.6666666666666803
157 153 -12.0000000000000142
157 154 4.6666666666666821
157 155 0.0000000000000229
157 156 -4.6666666666666679
157 157 29.3333333333333570
157 158 -9.3333333333333641
157 159 -2.6666666666667780
157 160 4.6666666666666918
157 185 0.0000000000000000
157 186 0.0000000000000000
157 189 -2.6666666666666727
157 190 4.6666666666666661
157 191 -11.9999999999999822
157 192 4.6666666666667052
158 111 0.0000000000000000
158 112 0.0000000000000000
158 147 -4.6666666666666803
158 148 0.0000000000000042
158 153 4.6666666666666661
158 154 -2.6666666666666696
158 155 -4.6666666666666679
158 156 0.0000000000000238
158 157 -9.3333333333333641
158 158 29.3333333333333748
158 159 4.6666666666667052
158 160 -11.9999999999999929
158 185 0.0000000000000000
158 186 0.0000000000000000
158 189 4.6666666666666821
158 190 -12.0000000000000266
158 191 4.6666666666666918
158 192 -2.6666666666667744
159 111 -11.9999999999999911
159 112 4.6666666666666607
159 119 0.0000000000000000
159 120 0.0000000000000000
159 121 -2.6666666666666710
159 122 4.6666666666666821
159 147 0.0000000000000000
159 148 0.0000000000000000
159 153 0.0000000000000604
159 154 -4.6666666666666590
159 155 -12.0000000000000124
159 156 4.6666666666666767
159 157 -2.6666666666667780
159 158 4.6666666666667052
159 159 29.3333333333333357
159 160 -9.3333333333333961
159 161 0.0000000000000138
159 162 -4.6666666666666590
160 111 4.6666666666666732
160 112 -2.6666666666666741
160 119 0.0000000000000000
160 120 0.0000000000000000
160 121 4.6666666666666661
160 122 -12.0000000000000195
160 147 0.0000000000000000
160 148 0.0000000000000000
160 153 -4.6666666666666572
160 154 0.0000000000000138
160 155 4.6666666666666767
160 156 -2.6666666666666803
160 157 4.6666666666666909
160 158 -11.9999999999999929
160 159 -9.3333333333333943
160 160 29.3333333333333144
160 161 -4.6666666666666572
160 162 0.0000000000000639
161 111 0.0000000000000000
161 112 0.0000000000000000
161 119 -2.6666666666666790
161 120 4.6666666666666758
161 121 -11.9999999999999911
161 122 4.6666666666666909
161 155 -2.6666666666666718
161 156 4.6666666666666714
161 159 0.0000000000000138
161 160 -4.6666666666666572
161 161 29.3333333333333179
161 162 -9.3333333333333925
161 163 0.0000000000000000
161 164 0.0000000000000000
161 165 -12.0000000000000266
161 166 4.6666666666666661
161 167 0.0000000000000639
161 168 -4.6666666666666572
162 111 0.0000000000000000
162 112 0.0000000000000000
162 119 4.6666666666666750
162 120 -12.0000000000000124
162 121 4.6666666666667052
162 122 -2.6666666666667798
162 155 4.6666666666666599
162 156 -11.9999999999999893
162 159 -4.6666666666666590
162 160 0.0000000000000639
162 161 -9.3333333333333943
162 162 29.3333333333333357
162 163 0.0000000000000000
162 164 0.0000000000000000
162 165 4.6666666666666821
162 166 -2.6666666666666727
162 167 -4.6666666666666590
162 168 0.0000000000000138
163 119 0.0000000000000000
163 120 0.0000000000000000
163 127 0.0000000000000000
163 128 0.0000000000000000
163 129 0.0000000000000000
163 130 0.0000000000000000
163 155 0.0000000000000000
163 156 0.0000000000000000
163 161 0.0000000000000000
163 162 0.0000000000000000
163 163 1.0000000000000000
163 164 0.0000000000000000
163 165 0.0000000000000000
163 166 0.0000000000000000
163 167 0.0000000000000000
163 168 0.0000000000000000
163 169 0.0000000000000000
163 170 0.0000000000000000
163 193 0.0000000000000000
163 194 0.0000000000000000
163 197 0.0000000000000000
163 198 0.0000000000000000
163 199 0.0000000000000000
163 200 0.0000000000000000
164 119 0.0000000000000000
164 120 0.0000000000000000
164 127 0.0000000000000000
164 128 0.0000000000000000
164 129 0.0000000000000000
164 130 0.0000000000000000
164 155 0.0000000000000000
164 156 0.0000000000000000
164 161 0.0000000000000000
164 162 0.0000000000000000
164 163 0.0000000000000000
164 164 1.0000000000000000
164 165 0.0000000000000000
164 166 0.0000000000000000
164 167 0.0000000000000000
164 168 0.0000000000000000
164 169 0.0000000000000000
164 170 0.0000000000000000
164 193 0.0000000000000000
164 194 0.0000000000000000
164 197 0.0000000000000000
164 198 0.0000000000000000
164 199 0.0000000000000000
164 200 0.0000000000000000
165 119 0.0000000000000000
165 120 0.0000000000000000
165 155 0.0000000000000042
165 156 -4.6666666666666803
165 161 -12.0000000000000266
165 162 4.6666666666666821
165 163 0.0000000000000238
165 164 -4.6666666666666679
165 165 29.3333333333333748
165 166 -9.3333333333333641
165 167 -2.6666666666667744
165 168 4.6666666666666918
165 193 0.0000000000000000
165 194 0.0000000000000000
165 197 -2.6666666666666696
165 198 4.6666666666666661
165 199 -11.9999999999999929
165 200 4.6666666666667052
166 119 0.0000000000000000
166 120 0.0000000000000000
166 155 -4.6666666666666803
166 156 0.0000000000000033
166 161 4.6666666666666661
166 162 -2.6666666666666727
166 163 -4.6666666666666679
166 164 0.0000000000000229
166 165 -9.3333333333333641
166 166 29.3333333333333570
166 167 4.6666666666667052
166 168 -11.9999999999999822
166 193 0.0000000000000000
166 194 0.0000000000000000
166 197 4.6666666666666821
166 198 -12.0000000000000142
166 199 4.6666666666666918
166 200 -2.6666666666667780
167 119 -11.9999999999999964
167 120 4.6666666666666599
167 127 0.0000000000000000
167 128 0.0000000000000000
167 129 -2.6666666666666714
167 130 4.6666666666666829
167 155 0.0000000000000000
167 156 0.0000000000000000
167 161 0.0000000000000639
167 162 -4.6666666666666590
167 163 -12.0000000000000178
167 164 4.6666666666666758
167 165 -2.6666666666667744
167 166 4.6666666666667052
167 167 29.3333333333333428
167 168 -9.3333333333333961
167 169 0.0000000000000138
167 170 -4.6666666666666599
168 119 4.6666666666666723
168 120 -2.6666666666666745
168 127 0.0000000000000000
168 128 0.0000000000000000
168 129 4.6666666666666670
168 130 -12.0000000000000213
168 155 0.0000000000000000
168 156 0.0000000000000000
168 161 -4.6666666666666572
168 162 0.0000000000000138
168 163 4.6666666666666758
168 164 -2.6666666666666807
168 165 4.6666666666666909
168 166 -11.9999999999999822
168 167 -9.3333333333333925
168 168 29.3333333333333073
168 169 -4.6666666666666572
168 170 0.0000000000000604
169 119 0.0000000000000000
169 120 0.0000000000000000
169 127 0.0000000000000000
169 128 0.0000000000000000
169 129 0.0000000000000000
169 130 0.0000000000000000
169 163 0.0000000000000000
169 164 0.0000000000000000
169 167 0.0000000000000000
169 168 0.0000000000000000
169 169 1.0000000000000000
169 170 0.0000000000000000
170 119 0.0000000000000000
170 120 0.0000000000000000
170 127 0.0000000000000000
170 128 0.0000000000000000
170 129 0.0000000000000000
170 130 0.0000000000000000
170 163 0.0000000000000000
170 164 0.0000000000000000
170 167 0.0000000000000000
170 168 0.0000000000000000
170 169 0.0000000000000000
170 170 1.0000000000000000
171 133 0.0000000000000000
171 134 0.0000000000000000
171 139 0.0000000000000000
171 140 0.0000000000000000
171 141 0.0000000000000000
171 142 0.0000000000000000
171 171 1.0000000000000000
171 172 0.0000000000000000
171 173 0.0000000000000000
171 174 0.0000000000000000
171 175 0.0000000000000000
171 176 0.0000000000000000
171 177 0.0000000000000000
171 178 0.0000000000000000
171 179 0.0000000000000000
171 180 0.0000000000000000
171 181 0.0000000000000000
171 182 0.0000000000000000
171 201 0.0000000000000000
171 202 0.0000000000000000
171 203 0.0000000000000000
171 204 0.0000000000000000
171 205 0.0000000000000000
171 206 0.0000000000000000
172 133 0.0000000000000000
172 134 0.0000000000000000
172 139 0.0000000000000000
172 140 0.0000000000000000
172 141 0.0000000000000000
172 142 0.0000000000000000
172 171 0.0000000000000000
172 172 1.0000000000000000
172 173 0.0000000000000000
172 174 0.0000000000000000
172 175 0.0000000000000000
172 176 0.0000000000000000
172 177 0.0000000000000000
172 178 0.0000000000000000
172 179 0.0000000000000000
172 180 0.0000000000000000
172 181 0.0000000000000000
172 182 0.0000000000000000
172 201 0.0000000000000000
172 202 0.0000000000000000
172 203 0.0000000000000000
172 204 0.0000000000000000
172 205 0.0000000000000000
172 206 0.0000000000000000
173 133 0.0000000000000000
173 134 0.0000000000000000
173 139 -2.6666666666666812
173 140 4.6666666666666750
173 141 -11.9999999999999858
173 142 4.6666666666666909
173 171 -2.6666666666666741
173 172 4.6666666666666714
173 173 29.3333333333333108
173 174 -9.3333333333333925
173 175 0.0000000000000138
173 176 -4.6666666666666554
173 177 0.0000000000000000
173 178 0.0000000000000000
173 179 -12.0000000000000213
173 180 4.6666666666666661
173 181 0.0000000000000604
173 182 -4.6666666666666572
174 133 0.0000000000000000
174 134 0.0000000000000000
174 139 4.6666666666666750
174 140 -12.0000000000000107
174 141 4.6666666666667052
174 142 -2.6666666666667753
174 171 4.6666666666666590
174 172 -11.9999999999999893
174 173 -9.3333333333333925
174 174 29.3333333333333286
174 175 -4.6666666666666581
174 176 0.0000000000000622
174 177 0.0000000000000000
174 178 0.0000000000000000
174 179 4.6666666666666821
174 180 -2.6666666666666714
174 181 -4.6666666666666590
174 182 0.0000000000000138
175 133 0.0000000000000000
175 134 0.0000000000000000
175 139 0.0000000000000000
175 140 0.0000000000000000
175 141 0.0000000000000000
175 142 0.0000000000000000
175 171 0.0000000000000000
175 172 0.0000000000000000
175 173 0.0000000000000000
175 174 0.0000000000000000
175 175 1.0000000000000000
175 176 0.0000000000000000
176 133 0.0000000000000000
176 134 0.0000000000000000
176 139 0.0000000000000000
176 140 0.0000000000000000
176 141 0.0000000000000000
176 142 0.0000000000000000
176 171 0.0000000000000000
176 172 0.0000000000000000
176 173 0.0000000000000000
176 174 0.0000000000000000
176 175 0.0000000000000000
176 176 1.0000000000000000
177 139 3.0000000000000133
177 140 -1.1666666666666750
177 147 0.6666666666666806
177 148 -1.1666666666666750
177 149 0.0000000000000000
177 150 0.0000000000000000
177 171 -0.0000000000000100
177 172 1.1666666666666647
177 173 0.0000000000000000
177 174 0.0000000000000000
177 177 22.0000000000000000
177 178 -7.0000000000000000
177 179 0.0000000000000229
177 180 -4.6666666666666679
177 181 -12.0000000000000178
177 182 4.6666666666666758
177 183 -2.6666666666666741
177 184 4.6666666666666599
177 185 -0.0000000000000100
177 186 1.1666666666666647
177 187 0.0000000000000033
177 188 -4.6666666666666803
177 189 0.0000000000000000
177 190 0.0000000000000000
177 201 0.6666666666666806
177 202 -1.1666666666666747
177 203 -2.6666666666666812
177 204 4.6666666666666750
177 205 0.0000000000000000
177 206 0.0000000000000000
177 207 3.0000000000000115
177 208 -1.1666666666666747
177 209 0.0000000000000000
177 210 0.0000000000000000
177 211 -11.9999999999999893
177 212 4.6666666666666714
177 213 0.0000000000000000
177 214 0.0000000000000000
178 139 -1.1666666666666747
178 140 0.6666666666666805
178 147 -1.1666666666666747
178 148 3.0000000000000124
178 149 0.0000000000000000
178 150 0.0000000000000000
178 171 1.1666666666666647
178 172 -0.0000000000000100
178 173 0.0000000000000000
178 174 0.0000000000000000
178 177 -7.0000000000000000
178 178 22.0000000000000000
178 179 -4.6666666666666679
178 180 0.0000000000000229
178 181 4.6666666666666750
178 182 -2.6666666666666812
178 183 4.6666666666666714
178 184 -11.9999999999999929
178 185 1.1666666666666650
178 186 -0.0000000000000100
178 187 -4.6666666666666803
178 188 0.0000000000000033
178 189 0.0000000000000000
178 190 0.0000000000000000
178 201 -1.1666666666666750
178 202 3.0000000000000124
178 203 4.6666666666666750
178 204 -12.0000000000000142
178 205 0.0000000000000000
178 206 0.0000000000000000
178 207 -1.1666666666666750
178 208 0.6666666666666801
178 209 0.0000000000000000
178 210 0.0000000000000000
178 211 4.6666666666666599
178 212 -2.6666666666666723
178 213 0.0000000000000000
178 214 0.0000000000000000
179 139 0.0000000000000000
179 140 0.0000000000000000
179 171 0.0000000000000033
179 172 -4.6666666666666803
179 173 -12.0000000000000213
179 174 4.6666666666666821
179 177 0.0000000000000229
179 178 -4.6666666666666679
179 179 29.3333333333333712
179 180 -9.3333333333333641
179 181 -2.6666666666667780
179 182 4.6666666666666918
179 201 0.0000000000000000
179 202 0.0000000000000000
179 203 -11.9999999999999929
179 204 4.6666666666667052
179 205 -2.6666666666666705
179 206 4.6666666666666661
180 139 0.0000000000000000
180 140 0.0000000000000000
180 171 -4.6666666666666803
180 172 0.0000000000000033
180 173 4.6666666666666661
180 174 -2.6666666666666714
180 177 -4.6666666666666679
180 178 0.0000000000000229
180 179 -9.3333333333333641
180 180 29.3333333333333606
180 181 4.6666666666667052
180 182 -11.9999999999999858
180 201 0.0000000000000000
180 202 0.0000000000000000
180 203 4.6666666666666918
180 204 -2.6666666666667771
180 205 4.6666666666666821
180 206 -12.0000000000000178
181 139 -11.9999999999999964
181 140 4.6666666666666599
181 147 0.0000000000000000
181 148 0.0000000000000000
181 149 -2.6666666666666705
181 150 4.6666666666666821
181 171 0.0000000000000000
181 172 0.0000000000000000
181 173 0.0000000000000604
181 174 -4.6666666666666590
181 177 -12.0000000000000178
181 178 4.6666666666666750
181 179 -2.6666666666667780
181 180 4.6666666666667052
181 181 29.3333333333333428
181 182 -9.3333333333333943
181 183 0.0000000000000138
181 184 -4.6666666666666590
182 139 4.6666666666666714
182 140 -2.6666666666666741
182 147 0.0000000000000000
182 148 0.0000000000000000
182 149 4.6666666666666661
182 150 -12.0000000000000178
182 171 0.0000000000000000
182 172 0.0000000000000000
182 173 -4.6666666666666572
182 174 0.0000000000000138
182 177 4.6666666666666758
182 178 -2.6666666666666812
182 179 4.6666666666666909
182 180 -11.9999999999999858
182 181 -9.3333333333333925
182 182 29.3333333333333073
182 183 -4.6666666666666572
182 184 0.0000000000000622
183 139 0.0000000000000000
183 140 0.0000000000000000
183 147 -2.6666666666666812
183 148 4.6666666666666758
183 149 -11.9999999999999929
183 150 4.6666666666666909
183 177 -2.6666666666666741
183 178 4.6666666666666714
183 181 0.0000000000000138
183 182 -4.6666666666666572
183 183 29.3333333333333144
183 184 -9.3333333333333925
183 185 0.0000000000000000
183 186 0.0000000000000000
183 187 -12.0000000000000178
183 188 4.6666666666666661
183 189 0.0000000000000622
183 190 -4.6666666666666572
184 139 0.0000000000000000
184 140 0.0000000000000000
184 147 4.6666666666666750
184 148 -12.0000000000000142
184 149 4.6666666666667052
184 150 -2.6666666666667753
184 177 4.6666666666666590
184 178 -11.9999999999999929
184 181 -4.6666666666666590
184 182 0.0000000000000622
184 183 -9.3333333333333925
184 184 29.3333333333333357
184 185 0.0000000000000000
184 186 0.0000000000000000
184 187 4.6666666666666829
184 188 -2.6666666666666701
184 189 -4.6666666666666599
184 190 0.0000000000000138
185 147 3.0000000000000115
185 148 -1.1666666666666750
185 155 0.6666666666666810
185 156 -1.1666666666666752
185 157 0.0000000000000000
185 158 0.0000000000000000
185 177 -0.0000000000000100
185 178 1.1666666666666647
185 183 0.0000000000000000
185 184 0.0000000000000000
185 185 22.0000000000000000
185 186 -7.0000000000000000
185 187 0.0000000000000229
185 188 -4.6666666666666679
185 189 -12.0000000000000107
185 190 4.6666666666666758
185 191 -2.6666666666666745
185 192 4.6666666666666599
185 193 -0.0000000000000100
185 194 1.1666666666666650
185 195 0.0000000000000033
185 196 -4.6666666666666803
185 197 0.0000000000000000
185 198 0.0000000000000000
185 207 0.6666666666666811
185 208 -1.1666666666666747
185 211 0.0000000000000000
185 212 0.0000000000000000
185 213 -2.6666666666666821
185 214 4.6666666666666750
185 215 3.0000000000000129
185 216 -1.1666666666666750
185 217 0.0000000000000000
185 218 0.0000000000000000
185 219 -11.9999999999999929
185 220 4.6666666666666723
185 221 0.0000000000000000
185 222 0.0000000000000000
186 147 -1.1666666666666747
186 148 0.6666666666666801
186 155 -1.1666666666666750
186 156 3.0000000000000133
186 157 0.0000000000000000
186 158 0.0000000000000000
186 177 1.1666666666666650
186 178 -0.0000000000000100
186 183 0.0000000000000000
186 184 0.0000000000000000
186 185 -7.0000000000000000
186 186 22.0000000000000000
186 187 -4.6666666666666679
186 188 0.0000000000000229
186 189 4.6666666666666750
186 190 -2.6666666666666785
186 191 4.6666666666666723
186 192 -11.9999999999999964
186 193 1.1666666666666650
186 194 -0.0000000000000100
186 195 -4.6666666666666803
186 196 0.0000000000000033
186 197 0.0000000000000000
186 198 0.0000000000000000
186 207 -1.1666666666666752
186 208 3.0000000000000124
186 211 0.0000000000000000
186 212 0.0000000000000000
186 213 4.6666666666666767
186 214 -12.0000000000000142
186 215 -1.1666666666666752
186 216 0.6666666666666807
186 217 0.0000000000000000
186 218 0.0000000000000000
186 219 4.6666666666666599
186 220 -2.6666666666666741
186 221 0.0000000000000000
186 222 0.0000000000000000
187 147 0.0000000000000000
187 148 0.0000000000000000
187 177 0.0000000000000033
187 178 -4.6666666666666803
187 183 -12.0000000000000178
187 184 4.6666666666666821
187 185 0.0000000000000229
187 186 -4.6666666666666679
187 187 29.3333333333333677
187 188 -9.3333333333333641
187 189 -2.6666666666667806
187 190 4.6666666666666918
187 207 0.0000000000000000
187 208 0.0000000000000000
187 211 -2.6666666666666723
187 212 4.6666666666666661
187 213 -11.9999999999999858
187 214 4.6666666666667052
188 147 0.0000000000000000
188 148 0.0000000000000000
188 177 -4.6666666666666803
188 178 0.0000000000000033
188 183 4.6666666666666661
188 184 -2.6666666666666701
188 185 -4.6666666666666679
188 186 0.0000000000000229
188 187 -9.3333333333333641
188 188 29.3333333333333712
188 189 4.6666666666667043
188 190 -11.9999999999999911
188 207 0.0000000000000000
188 208 0.0000000000000000
188 211 4.6666666666666829
188 212 -12.0000000000000249
188 213 4.6666666666666909
188 214 -2.6666666666667735
189 147 -11.9999999999999893
189 148 4.6666666666666599
189 155 0.0000000000000000
189 156 0.0000000000000000
189 157 -2.6666666666666727
189 158 4.6666666666666821
189 177 0.0000000000000000
189 178 0.0000000000000000
189 183 0.0000000000000622
189 184 -4.6666666666666590
189 185 -12.0000000000000107
189 186 4.6666666666666750
189 187 -2.6666666666667789
189 188 4.6666666666667052
189 189 29.3333333333333357
189 190 -9.3333333333333943
189 191 0.0000000000000138
189 192 -4.6666666666666590
190 147 4.6666666666666714
190 148 -2.6666666666666714
190 155 0.0000000000000000
190 156 0.0000000000000000
190 157 4.6666666666666661
190 158 -12.0000000000000266
190 177 0.0000000000000000
190 178 0.0000000000000000
190 183 -4.6666666666666572
190 184 0.0000000000000138
190 185 4.6666666666666767
190 186 -2.6666666666666785
190 187 4.6666666666666909
190 188 -11.9999999999999911
190 189 -9.3333333333333925
190 190 29.3333333333333144
190 191 -4.6666666666666572
190 192 0.0000000000000639
191 147 0.0000000000000000
191 148 0.0000000000000000
191 155 -2.6666666666666807
191 156 4.6666666666666758
191 157 -11.9999999999999822
191 158 4.6666666666666909
191 185 -2.6666666666666745
191 186 4.6666666666666723
191 189 0.0000000000000138
191 190 -4.6666666666666572
191 191 29.3333333333333073
191 192 -9.3333333333333925
191 193 0.0000000000000000
191 194 0.0000000000000000
191 195 -12.0000000000000213
191 196 4.6666666666666670
191 197 0.0000000000000604
191 198 -4.6666666666666572
192 147 0.0000000000000000
192 148 0.0000000000000000
192 155 4.6666666666666758
192 156 -12.0000000000000178
192 157 4.6666666666667052
192 158 -2.6666666666667744
192 185 4.6666666666666599
192 186 -11.9999999999999964
192 189 -4.6666666666666590
192 190 0.0000000000000639
192 191 -9.3333333333333961
192 192 29.3333333333333428
192 193 0.0000000000000000
192 194 0.0000000000000000
192 195 4.6666666666666829
192 196 -2.6666666666666714
192 197 -4.6666666666666599
192 198 0.0000000000000138
193 155 0.0000000000000000
193 156 0.0000000000000000
193 163 0.0000000000000000
193 164 0.0000000000000000
193 165 0.0000000000000000
193 166 0.0000000000000000
193 185 0.0000000000000000
193 186 0.0000000000000000
193 191 0.0000000000000000
193 192 0.0000000000000000
193 193 1.0000000000000000
193 194 0.0000000000000000
193 195 0.0000000000000000
193 196 0.0000000000000000
193 197 0.0000000000000000
193 198 0.0000000000000000
193 199 0.0000000000000000
193 200 0.0000000000000000
193 215 0.0000000000000000
193 216 0.0000000000000000
193 219 0.0000000000000000
193 220 0.0000000000000000
193 221 0.0000000000000000
193 222 0.0000000000000000
194 155 0.0000000000000000
194 156 0.0000000000000000
194 163 0.0000000000000000
194 164 0.0000000000000000
194 165 0.0000000000000000
194 166 0.0000000000000000
194 185 0.0000000000000000
194 186 0.0000000000000000
194 191 0.0000000000000000
194 192 0.0000000000000000
194 193 0.0000000000000000
194 194 1.0000000000000000
194 195 0.0000000000000000
194 196 0.0000000000000000
194 197 0.0000000000000000
194 198 0.0000000000000000
194 199 0.0000000000000000
194 200 0.0000000000000000
194 215 0.0000000000000000
194 216 0.0000000000000000
194 219 0.0000000000000000
194 220 0.0000000000000000
194 221 0.0000000000000000
194 222 0.0000000000000000
195 155 0.0000000000000000
195 156 0.0000000000000000
195 185 0.0000000000000033
195 186 -4.6666666666666803
195 191 -12.0000000000000213
195 192 4.6666666666666829
195 193 0.0000000000000229
195 194 -4.6666666666666679
195 195 29.3333333333333677
195 196 -9.3333333333333641
195 197 -2.6666666666667762
195 198 4.6666666666666909
195 215 0.0000000000000000
195 216 0.0000000000000000
195 219 -2.6666666666666714
195 220 4.6666666666666670
195 221 -11.9999999999999893
195 222 4.6666666666667043
196 155 0.0000000000000000
196 156 0.0000000000000000
196 185 -4.6666666666666803
196 186 0.0000000000000033
196 191 4.6666666666666670
196 192 -2.6666666666666714
196 193 -4.6666666666666679
196 194 0.0000000000000229
196 195 -9.3333333333333641
196 196 29.3333333333333677
196 197 4.6666666666667043
196 198 -11.9999999999999893
196 215 0.0000000000000000
196 216 0.0000000000000000
196 219 4.6666666666666829
196 220 -12.0000000000000213
196 221 4.6666666666666909
196 222 -2.6666666666667762
197 155 -11.9999999999999964
197 156 4.6666666666666607
197 163 0.0000000000000000
197 164 0.0000000000000000
197 165 -2.6666666666666696
197 166 4.6666666666666821
197 185 0.0000000000000000
197 186 0.0000000000000000
197 191 0.0000000000000604
197 192 -4.6666666666666599
197 193 -12.0000000000000178
197 194 4.6666666666666758
197 195 -2.6666666666667762
197 196 4.6666666666667043
197 197 29.3333333333333428
197 198 -9.3333333333333925
197 199 0.0000000000000138
197 200 -4.6666666666666590
198 155 4.6666666666666723
198 156 -2.6666666666666750
198 163 0.0000000000000000
198 164 0.0000000000000000
198 165 4.6666666666666661
198 166 -12.0000000000000142
198 185 0.0000000000000000
198 186 0.0000000000000000
198 191 -4.6666666666666572
198 192 0.0000000000000138
198 193 4.6666666666666767
198 194 -2.6666666666666821
198 195 4.6666666666666901
198 196 -11.9999999999999893
198 197 -9.3333333333333925
198 198 29.3333333333333108
198 199 -4.6666666666666572
198 200 0.0000000000000604
199 155 0.0000000000000000
199 156 0.0000000000000000
199 163 0.0000000000000000
199 164 0.0000000000000000
199 165 0.0000000000000000
199 166 0.0000000000000000
199 193 0.0000000000000000
199 194 0.0000000000000000
199 197 0.0000000000000000
199 198 0.0000000000000000
199 199 1.0000000000000000
199 200 0.0000000000000000
200 155 0.0000000000000000
200 156 0.0000000000000000
200 163 0.0000000000000000
200 164 0.0000000000000000
200 165 0.0000000000000000
200 166 0.0000000000000000
200 193 0.0000000000000000
200 194 0.0000000000000000
200 197 0.0000000000000000
200 198 0.0000000000000000
200 199 0.0000000000000000
200 200 1.0000000000000000
201 171 0.0000000000000000
201 172 0.0000000000000000
201 177 0.0000000000000000
201 178 0.0000000000000000
201 179 0.0000000000000000
201 180 0.0000000000000000
201 201 1.0000000000000000
201 202 0.0000000000000000
201 203 0.0000000000000000
201 204 0.0000000000000000
201 205 0.0000000000000000
201 206 0.0000000000000000
201 207 0.0000000000000000
201 208 0.0000000000000000
201 209 0.0000000000000000
201 210 0.0000000000000000
201 211 0.0000000000000000
201 212 0.0000000000000000
201 223 0.0000000000000000
201 224 0.0000000000000000
201 225 0.0000000000000000
201 226 0.0000000000000000
201 227 0.0000000000000000
201 228 0.0000000000000000
202 171 0.0000000000000000
202 172 0.0000000000000000
202 177 0.0000000000000000
202 178 0.0000000000000000
202 179 0.0000000000000000
202 180 0.0000000000000000
202 201 0.0000000000000000
202 202 1.0000000000000000
202 203 0.0000000000000000
202 204 0.0000000000000000
202 205 0.0000000000000000
202 206 0.0000000000000000
202 207 0.0000000000000000
202 208 0.0000000000000000
202 209 0.0000000000000000
202 210 0.0000000000000000
202 211 0.0000000000000000
202 212 0.0000000000000000
202 223 0.0000000000000000
202 224 0.0000000000000000
202 225 0.0000000000000000
202 226 0.0000000000000000
202 227 0.0000000000000000
202 228 0.0000000000000000
203 171 0.0000000000000000
203 172 0.0000000000000000
203 177 -2.6666666666666812
203 178 4.6666666666666758
203 179 -11.9999999999999929
203 180 4.6666666666666909
203 201 -2.6666666666666741
203 202 4.6666666666666714
203 203 29.3333333333333144
203 204 -9.3333333333333925
203 205 0.0000000000000138
203 206 -4.6666666666666572
203 207 0.0000000000000000
203 208 0.0000000000000000
203 209 -12.0000000000000178
203 210 4.6666666666666661
203 211 0.0000000000000622
203 212 -4.6666666666666572
204 171 0.0000000000000000
204 172 0.0000000000000000
204 177 4.6666666666666750
204 178 -12.0000000000000142
204 179 4.6666666666667052
204 180 -2.6666666666667753
204 201 4.6666666666666590
204 202 -11.9999999999999929
204 203 -9.3333333333333925
204 204 29.3333333333333357
204 205 -4.6666666666666590
204 206 0.0000000000000622
204 207 0.0000000000000000
204 208 0.0000000000000000
204 209 4.6666666666666829
204 210 -2.6666666666666701
204 211 -4.6666666666666599
204 212 0.0000000000000138
205 171 0.0000000000000000
205 172 0.0000000000000000
205 177 0.0000000000000000
205 178 0.0000000000000000
205 179 0.0000000000000000
205 180 0.0000000000000000
205 201 0.0000000000000000
205 202 0.0000000000000000
205 203 0.0000000000000000
205 204 0.0000000000000000
205 205 1.0000000000000000
205 206 0.0000000000000000
206 171 0.0000000000000000
206 172 0.0000000000000000
206 177 0.0000000000000000
206 178 0.0000000000000000
206 179 0.0000000000000000
206 180 0.0000000000000000
206 201 0.0000000000000000
206 202 0.0000000000000000
206 203 0.0000000000000000
206 204 0.0000000000000000
206 205 0.0000000000000000
206 206 1.0000000000000000
207 177 3.0000000000000115
207 178 -1.1666666666666750
207 185 0.6666666666666811
207 186 -1.1666666666666750
207 187 0.0000000000000000
207 188 0.0000000000000000
207 201 -0.0000000000000100
207 202 1.1666666666666647
207 203 0.0000000000000000
207 204 0.0000000000000000
207 207 22.0000000000000000
207 208 -7.0000000000000000
207 209 0.0000000000000229
207 210 -4.6666666666666679
207 211 -12.0000000000000107
207 212 4.6666666666666758
207 213 -2.6666666666666750
207 214 4.6666666666666599
207 215 -0.0000000000000100
207 216 1.1666666666666647
207 217 0.0000000000000033
207 218 -4.6666666666666803
207 219 0.0000000000000000
207 220 0.0000000000000000
207 223 0.6666666666666811
207 224 -1.1666666666666747
207 225 -2.6666666666666821
207 226 4.6666666666666750
207 227 0.0000000000000000
207 228 0.0000000000000000
207 229 3.0000000000000133
207 230 -1.1666666666666747
207 231 0.0000000000000000
207 232 0.0000000000000000
207 233 -11.9999999999999964
207 234 4.6666666666666714
207 235 0.0000000000000000
207 236 0.0000000000000000
208 177 -1.1666666666666747
208 178 0.6666666666666801
208 185 -1.1666666666666747
208 186 3.0000000000000124
208 187 0.0000000000000000
208 188 0.0000000000000000
208 201 1.1666666666666650
208 202 -0.0000000000000100
208 203 0.0000000000000000
208 204 0.0000000000000000
208 207 -7.0000000000000000
208 208 22.0000000000000000
208 209 -4.6666666666666679
208 210 0.0000000000000229
208 211 4.6666666666666750
208 212 -2.6666666666666785
208 213 4.6666666666666714
208 214 -11.9999999999999929
208 215 1.1666666666666647
208 216 -0.0000000000000100
208 217 -4.6666666666666803
208 218 0.0000000000000033
208 219 0.0000000000000000
208 220 0.0000000000000000
208 223 -1.1666666666666752
208 224 3.0000000000000124
208 225 4.6666666666666767
208 226 -12.0000000000000142
208 227 0.0000000000000000
208 228 0.0000000000000000
208 229 -1.1666666666666750
208 230 0.6666666666666805
208 231 0.0000000000000000
208 232 0.0000000000000000
208 233 4.6666666666666599
208 234 -2.6666666666666741
208 235 0.0000000000000000
208 236 0.0000000000000000
209 177 0.0000000000000000
209 178 0.0000000000000000
209 201 0.0000000000000033
209 202 -4.6666666666666803
209 203 -12.0000000000000178
209 204 4.6666666666666821
209 207 0.0000000000000229
209 208 -4.6666666666666679
209 209 29.3333333333333677
209 210 -9.3333333333333641
209 211 -2.6666666666667806
209 212 4.6666666666666918
209 223 0.0000000000000000
209 224 0.0000000000000000
209 225 -11.9999999999999858
209 226 4.6666666666667052
209 227 -2.6666666666666723
209 228 4.6666666666666661
210 177 0.0000000000000000
210 178 0.0000000000000000
210 201 -4.6666666666666803
210 202 0.0000000000000033
210 203 4.6666666666666661
210 204 -2.6666666666666701
210 207 -4.6666666666666679
210 208 0.0000000000000229
210 209 -9.3333333333333641
210 210 29.3333333333333712
210 211 4.6666666666667043
210 212 -11.9999999999999911
210 223 0.0000000000000000
210 224 0.0000000000000000
210 225 4.6666666666666909
210 226 -2.6666666666667735
210 227 4.6666666666666829
210 228 -12.0000000000000249
211 177 -11.9999999999999893
211 178 4.6666666666666599
211 185 0.0000000000000000
211 186 0.0000000000000000
211 187 -2.6666666666666723
211 188 4.6666666666666821
211 201 0.0000000000000000
211 202 0.0000000000000000
211 203 0.0000000000000622
211 204 -4.6666666666666590
211 207 -12.0000000000000107
211 208 4.6666666666666750
211 209 -2.6666666666667789
211 210 4.6666666666667052
211 211 29.3333333333333357
211 212 -9.3333333333333943
211 213 0.0000000000000138
211 214 -4.6666666666666590
212 177 4.6666666666666714
212 178 -2.6666666666666723
212 185 0.0000000000000000
212 186 0.0000000000000000
212 187 4.6666666666666661
212 188 -12.0000000000000249
212 201 0.0000000000000000
212 202 0.0000000000000000
212 203 -4.6666666666666572
212 204 0.0000000000000138
212 207 4.6666666666666750
212 208 -2.6666666666666785
212 209 4.6666666666666909
212 210 -11.9999999999999911
212 211 -9.3333333333333925
212 212 29.3333333333333144
212 213 -4.6666666666666572
212 214 0.0000000000000622
213 177 0.0000000000000000
213 178 0.0000000000000000
213 185 -2.6666666666666821
213 186 4.6666666666666758
213 187 -11.9999999999999858
213 188 4.6666666666666909
213 207 -2.6666666666666750
213 208 4.6666666666666714
213 211 0.0000000000000138
213 212 -4.6666666666666572
213 213 29.3333333333333144
213 214 -9.3333333333333925
213 215 0.0000000000000000
213 216 0.0000000000000000
213 217 -12.0000000000000213
213 218 4.6666666666666661
213 219 0.0000000000000604
213 220 -4.6666666666666572
214 177 0.0000000000000000
214 178 0.0000000000000000
214 185 4.6666666666666750
214 186 -12.0000000000000142
214 187 4.6666666666667043
214 188 -2.6666666666667753
214 207 4.6666666666666607
214 208 -11.9999999999999929
214 211 -4.6666666666666599
214 212 0.0000000000000622
214 213 -9.3333333333333925
214 214 29.3333333333333321
214 215 0.0000000000000000
214 216 0.0000000000000000
214 217 4.6666666666666821
214 218 -2.6666666666666714
214 219 -4.6666666666666590
214 220 0.0000000000000138
215 185 0.0000000000000000
215 186 0.0000000000000000
215 193 0.0000000000000000
215 194 0.0000000000000000
215 195 0.0000000000000000
215 196 0.0000000000000000
215 207 0.0000000000000000
215 208 0.0000000000000000
215 213 0.0000000000000000
215 214 0.0000000000000000
215 215 1.0000000000000000
215 216 0.0000000000000000
215 217 0.0000000000000000
215 218 0.0000000000000000
215 219 0.0000000000000000
215 220 0.0000000000000000
215 221 0.0000000000000000
215 222 0.0000000000000000
215 229 0.0000000000000000
215 230 0.0000000000000000
215 233 0.0000000000000000
215 234 0.0000000000000000
215 235 0.0000000000000000
215 236 0.0000000000000000
216 185 0.0000000000000000
216 186 0.0000000000000000
216 193 0.0000000000000000
216 194 0.0000000000000000
216 195 0.0000000000000000
216 196 0.0000000000000000
216 207 0.0000000000000000
216 208 0.0000000000000000
216 213 0.0000000000000000
216 214 0.0000000000000000
216 215 0.0000000000000000
216 216 1.0000000000000000
216 217 0.0000000000000000
216 218 0.0000000000000000
216 219 0.0000000000000000
216 220 0.0000000000000000
216 221 0.0000000000000000
216 222 0.0000000000000000
216 229 0.0000000000000000
216 230 0.0000000000000000
216 233 0.0000000000000000
216 234 0.0000000000000000
216 235 0.0000000000000000
216 236 0.0000000000000000
217 185 0.0000000000000000
217 186 0.0000000000000000
217 207 0.0000000000000033
217 208 -4.6666666666666803
217 213 -12.0000000000000213
217 214 4.6666666666666821
217 215 0.0000000000000229
217 216 -4.6666666666666679
217 217 29.3333333333333712
217 218 -9.3333333333333641
217 219 -2.6666666666667780
217 220 4.6666666666666918
217 229 0.0000000000000000
217 230 0.0000000000000000
217 233 -2.6666666666666705
217 234 4.6666666666666661
217 235 -11.9999999999999929
217 236 4.6666666666667052
218 185 0.0000000000000000
218 186 0.0000000000000000
218 207 -4.6666666666666803
218 208 0.0000000000000033
218 213 4.6666666666666661
218 214 -2.6666666666666714
218 215 -4.6666666666666679
218 216 0.0000000000000229
218 217 -9.3333333333333641
218 218 29.3333333333333606
218 219 4.6666666666667052
218 220 -11.9999999999999858
218 229 0.0000000000000000
218 230 0.0000000000000000
218 233 4.6666666666666821
218 234 -12.0000000000000178
218 235 4.6666666666666918
218 236 -2.6666666666667771
219 185 -11.9999999999999929
219 186 4.6666666666666599
219 193 0.0000000000000000
219 194 0.0000000000000000
219 195 -2.6666666666666714
219 196 4.6666666666666829
219 207 0.0000000000000000
219 208 0.0000000000000000
219 213 0.0000000000000604
219 214 -4.6666666666666590
219 215 -12.0000000000000160
219 216 4.6666666666666758
219 217 -2.6666666666667780
219 218 4.6666666666667052
219 219 29.3333333333333428
219 220 -9.3333333333333961
219 221 0.0000000000000138
219 222 -4.6666666666666599
220 185 4.6666666666666723
220 186 -2.6666666666666741
220 193 0.0000000000000000
220 194 0.0000000000000000
220 195 4.6666666666666670
220 196 -12.0000000000000213
220 207 0.0000000000000000
220 208 0.0000000000000000
220 213 -4.6666666666666572
220 214 0.0000000000000138
220 215 4.6666666666666758
220 216 -2.6666666666666803
220 217 4.6666666666666909
220 218 -11.9999999999999858
220 219 -9.3333333333333925
220 220 29.3333333333333108
220 221 -4.6666666666666572
220 222 0.0000000000000604
221 185 0.0000000000000000
221 186 0.0000000000000000
221 193 0.0000000000000000
221 194 0.0000000000000000
221 195 0.0000000000000000
221 196 0.0000000000000000
221 215 0.0000000000000000
221 216 0.0000000000000000
221 219 0.0000000000000000
221 220 0.0000000000000000
221 221 1.0000000000000000
221 222 0.0000000000000000
222 185 0.0000000000000000
222 186 0.0000000000000000
222 193 0.0000000000000000
222 194 0.0000000000000000
222 195 0.0000000000000000
222 196 0.0000000000000000
222 215 0.0000000000000000
222 216 0.0000000000000000
222 219 0.0000000000000000
222 220 0.0000000000000000
222 221 0.0000000000000000
222 222 1.0000000000000000
223 201 0.0000000000000000
223 202 0.0000000000000000
223 207 0.0000000000000000
223 208 0.0000000000000000
223 209 0.0000000000000000
223 210 0.0000000000000000
223 223 1.0000000000000000
223 224 0.0000000000000000
223 225 0.0000000000000000
223 226 0.0000000000000000
223 227 0.0000000000000000
223 228 0.0000000000000000
223 229 0.0000000000000000
223 230 0.0000000000000000
223 231 0.0000000000000000
223 232 0.0000000000000000
223 233 0.0000000000000000
223 234 0.0000000000000000
223 237 0.0000000000000000
223 238 0.0000000000000000
223 239 0.0000000000000000
223 240 0.0000000000000000
223 241 0.0000000000000000
223 242 0.0000000000000000
224 201 0.0000000000000000
224 202 0.0000000000000000
224 207 0.0000000000000000
224 208 0.0000000000000000
224 209 0.0000000000000000
224 210 0.0000000000000000
224 223 0.0000000000000000
224 224 1.0000000000000000
224 225 0.0000000000000000
224 226 0.0000000000000000
224 227 0.0000000000000000
224 228 0.0000000000000000
224 229 0.0000000000000000
224 230 0.0000000000000000
224 231 0.0000000000000000
224 232 0.0000000000000000
224 233 0.0000000000000000
224 234 0.0000000000000000
224 237 0.0000000000000000
224 238 0.0000000000000000
224 239 0.0000000000000000
224 240 0.0000000000000000
224 241 0.0000000000000000
224 242 0.0000000000000000
225 201 0.0000000000000000
225 202 0.0000000000000000
225 207 -2.6666666666666821
225 208 4.6666666666666758
225 209 -11.9999999999999858
225 210 4.6666666666666909
225 223 -2.6666666666666750
225 224 4.6666666666666714
225 225 29.3333333333333144
225 226 -9.3333333333333925
225 227 0.0000000000000138
225 228 -4.6666666666666572
225 229 0.0000000000000000
225 230 0.0000000000000000
225 231 -12.0000000000000213
225 232 4.6666666666666661
225 233 0.0000000000000604
225 234 -4.6666666666666572
226 201 0.0000000000000000
226 202 0.0000000000000000
226 207 4.6666666666666750
226 208 -12.0000000000000142
226 209 4.6666666666667043
226 210 -2.6666666666667753
226 223 4.6666666666666607
226 224 -11.9999999999999929
226 225 -9.3333333333333925
226 226 29.3333333333333321
226 227 -4.6666666666666599
226 228 0.0000000000000622
226 229 0.0000000000000000
226 230 0.0000000000000000
226 231 4.6666666666666821
226 232 -2.6666666666666714
226 233 -4.6666666666666590
226 234 0.0000000000000138
227 201 0.0000000000000000
227 202 0.0000000000000000
227 207 0.0000000000000000
227 208 0.0000000000000000
227 209 0.0000000000000000
227 210 0.0000000000000000
227 223 0.0000000000000000
227 224 0.0000000000000000
227 225 0.0000000000000000
227 226 0.0000000000000000
227 227 1.0000000000000000
227 228 0.0000000000000000
228 201 0.0000000000000000
228 202 0.0000000000000000
228 207 0.0000000000000000
228 208 0.0000000000000000
228 209 0.0000000000000000
228 210 0.0000000000000000
228 223 0.0000000000000000
228 224 0.0000000000000000
228 225 0.0000000000000000
228 226 0.0000000000000000
228 227 0.0000000000000000
228 228 1.0000000000000000
229 207 0.0000000000000000
229 208 0.0000000000000000
229 215 0.0000000000000000
229 216 0.0000000000000000
229 217 0.0000000000000000
229 218 0.0000000000000000
229 223 0.0000000000000000
229 224 0.0000000000000000
229 225 0.0000000000000000
229 226 0.0000000000000000
229 229 1.0000000000000000
229 230 0.0000000000000000
229 231 0.0000000000000000
229 232 0.0000000000000000
229 233 0.0000000000000000
229 234 0.0000000000000000
229 235 0.0000000000000000
229 236 0.0000000000000000
229 237 0.0000000000000000
229 238 0.0000000000000000
229 239 0.0000000000000000
229 240 0.0000000000000000
229 241 0.0000000000000000
229 242 0.0000000000000000
230 207 0.0000000000000000
230 208 0.0000000000000000
230 215 0.0000000000000000
230 216 0.0000000000000000
230 217 0.0000000000000000
230 218 0.0000000000000000
230 223 0.0000000000000000
230 224 0.0000000000000000
230 225 0.0000000000000000
230 226 0.0000000000000000
230 229 0.0000000000000000
230 230 1.0000000000000000
230 231 0.0000000000000000
230 232 0.0000000000000000
230 233 0.0000000000000000
230 234 0.0000000000000000
230 235 0.0000000000000000
230 236 0.0000000000000000
230 237 0.0000000000000000
230 238 0.0000000000000000
230 239 0.0000000000000000
230 240 0.0000000000000000
230 241 0.0000000000000000
230 242 0.0000000000000000
231 207 0.0000000000000000
231 208 0.0000000000000000
231 223 0.0000000000000033
231 224 -4.6666666666666803
231 225 -12.0000000000000213
231 226 4.6666666666666821
231 229 0.0000000000000229
231 230 -4.6666666666666679
231 231 29.3333333333333712
231 232 -9.3333333333333641
231 233 -2.6666666666667780
231 234 4.6666666666666918
231 237 0.0000000000000000
231 238 0.0000000000000000
231 239 -11.9999999999999929
231 240 4.6666666666667052
231 241 -2.6666666666666705
231 242 4.6666666666666661
232 207 0.0000000000000000
232 208 0.0000000000000000
232 223 -4.6666666666666803
232 224 0.0000000000000033
232 225 4.6666666666666661
232 226 -2.6666666666666714
232 229 -4.6666666666666679
232 230 0.0000000000000229
232 231 -9.3333333333333641
232 232 29.3333333333333606
232 233 4.6666666666667052
232 234 -11.9999999999999858
232 237 0.0000000000000000
232 238 0.0000000000000000
232 239 4.6666666666666918
232 240 -2.6666666666667771
232 241 4.6666666666666821
232 242 -12.0000000000000178
233 207 -11.9999999999999964
233 208 4.6666666666666599
233 215 0.0000000000000000
233 216 0.0000000000000000
233 217 -2.6666666666666705
233 218 4.6666666666666821
233 223 0.0000000000000000
233 224 0.0000000000000000
233 225 0.0000000000000604
233 226 -4.6666666666666590
233 229 -12.0000000000000178
233 230 4.6666666666666750
233 231 -2.6666666666667780
233 232 4.6666666666667052
233 233 29.3333333333333428
233 234 -9.3333333333333943
233 235 0.0000000000000138
233 236 -4.6666666666666590
234 207 4.6666666666666714
234 208 -2.6666666666666741
234 215 0.0000000000000000
234 216 0.0000000000000000
234 217 4.6666666666666661
234 218 -12.0000000000000178
234 223 0.0000000000000000
234 224 0.0000000000000000
234 225 -4.6666666666666572
234 226 0.0000000000000138
234 229 4.6666666666666758
234 230 -2.6666666666666812
234 231 4.6666666666666909
234 232 -11.9999999999999858
234 233 -9.3333333333333925
234 234 29.3333333333333073
234 235 -4.6666666666666572
234 236 0.0000000000000622
235 207 0.0000000000000000
235 208 0.0000000000000000
235 215 0.0000000000000000
235 216 0.0000000000000000
235 217 0.0000000000000000
235 218 0.0000000000000000
235 229 0.0000000000000000
235 230 0.0000000000000000
235 233 0.0000000000000000
235 234 0.0000000000000000
235 235 1.0000000000000000
235 236 0.0000000000000000
236 207 0.0000000000000000
236 208 0.0000000000000000
236 215 0.0000000000000000
236 216 0.0000000000000000
236 217 0.0000000000000000
236 218 0.0000000000000000
236 229 0.0000000000000000
236 230 0.0000000000000000
236 233 0.0000000000000000
236 234 0.0000000000000000
236 235 0.0000000000000000
236 236 1.0000000000000000
237 223 0.0000000000000000
237 224 0.0000000000000000
237 229 0.0000000000000000
237 230 0.0000000000000000
237 231 0.0000000000000000
237 232 0.0000000000000000
237 237 1.0000000000000000
237 238 0.0000000000000000
237 239 0.0000000000000000
237 240 0.0000000000000000
237 241 0.0000000000000000
237 242 0.0000000000000000
238 223 0.0000000000000000
238 224 0.0000000000000000
238 229 0.0000000000000000
238 230 0.0000000000000000
238 231 0.0000000000000000
238 232 0.0000000000000000
238 237 0.0000000000000000
238 238 1.0000000000000000
238 239 0.0000000000000000
238 240 0.0000000000000000
238 241 0.0000000000000000
238 242 0.0000000000000000
239 223 0.0000000000000000
239 224 0.0000000000000000
239 229 0.0000000000000000
239 230 0.0000000000000000
239 231 0.0000000000000000
239 232 0.0000000000000000
239 237 0.0000000000000000
239 238 0.0000000000000000
239 239 1.0000000000000000
239 240 0.0000000000000000
239 241 0.0000000000000000
239 242 0.0000000000000000
240 223 0.0000000000000000
240 224 0.0000000000000000
240 229 0.0000000000000000
240 230 0.0000000000000000
240 231 0.0000000000000000
240 232 0.0000000000000000
240 237 0.0000000000000000
240 238 0.0000000000000000
240 239 0.0000000000000000
240 240 1.0000000000000000
240 241 0.0000000000000000
240 242 0.0000000000000000
241 223 0.0000000000000000
241 224 0.0000000000000000
241 229 0.0000000000000000
241 230 0.0000000000000000
241 231 0.0000000000000000
241 232 0.0000000000000000
241 237 0.0000000000000000
241 238 0.0000000000000000
241 239 0.0000000000000000
241 240 0.0000000000000000
241 241 1.0000000000000000
241 242 0.0000000000000000
242 223 0.0000000000000000
242 224 0.0000000000000000
242 229 0.0000000000000000
242 230 0.0000000000000000
242 231 0.0000000000000000
242 232 0.0000000000000000
242 237 0.0000000000000000
242 238 0.0000000000000000
242 239 0.0000000000000000
242 240 0.0000000000000000
242 241 0.0000000000000000
242 242 1.0000000000000000
