%%MatrixMarket vector coordinate real general
237
1   1.00000000058300431149e+00
2   1.00000000000011768364e+00
3   1.00000000000184852134e+00
4   1.00000000116600995526e+00
5   1.00000000000045408122e+00
6   1.00000000000349986706e+00
7   1.00000000174901471084e+00
8   1.00000000000098454578e+00
9   1.00000000000495692376e+00
10   1.00000000233202035460e+00
11   1.00000000000168509651e+00
12   1.00000000000621880325e+00
13   1.00000000291502222360e+00
14   1.00000000000253153054e+00
15   1.00000000000729283300e+00
16   1.00000000349802742328e+00
17   1.00000000000350053320e+00
18   1.00000000000818078938e+00
19   1.00000000408103018046e+00
20   1.00000000000456923388e+00
21   1.00000000000889310847e+00
22   1.00000000466403848876e+00
23   1.00000000000571698244e+00
24   1.00000000000944000433e+00
25   1.00000000524704324434e+00
26   1.00000000000692157442e+00
27   1.00000000000980415749e+00
28   1.00000000583005044241e+00
29   1.00000000000816058332e+00
30   1.00000000000998889860e+00
31   1.00000000641305897275e+00
32   1.00000000000941180467e+00
33   1.00000000000999733629e+00
34   1.00000000699606506060e+00
35   1.00000000001065192379e+00
36   1.00000000000981614789e+00
37   1.00000000757907425708e+00
38   1.00000000001185762599e+00
39   1.00000000000944089251e+00
40   1.00000000816207990084e+00
41   1.00000000001300404229e+00
42   1.00000000000887379059e+00
43   1.00000000874508532256e+00
44   1.00000000001406808003e+00
45   1.00000000000811684053e+00
46   1.00000000932809141041e+00
47   1.00000000001502620250e+00
48   1.00000000000718469728e+00
49   1.00000000991109594395e+00
50   1.00000000001585664933e+00
51   1.00000000000607536244e+00
52   1.00000001049410003340e+00
53   1.00000000001653766013e+00
54   1.00000000000478816986e+00
55   1.00000001107711167236e+00
56   1.00000000001704547614e+00
57   1.00000000000330691030e+00
58   1.00000001166012064679e+00
59   1.00000000001735611654e+00
60   1.00000000000163069558e+00
61   1.00000001257518200681e+00
62   1.00000000001781730319e+00
63   9.99999999999531596906e-01
64   1.00000001282672545955e+00
65   1.00000000001764877133e+00
66   9.99999999997814081887e-01
67   1.00000001307827157682e+00
68   1.00000000001727906707e+00
69   9.99999999996299071547e-01
70   1.00000001332982590974e+00
71   1.00000000001673239325e+00
72   9.99999999994982124996e-01
73   1.00000001358136914043e+00
74   1.00000000001603339683e+00
75   9.99999999993874122417e-01
76   1.00000001383291348134e+00
77   1.00000000001520872317e+00
78   9.99999999992964627715e-01
79   1.00000001408446737017e+00
80   1.00000000001428301921e+00
81   9.99999999992262522674e-01
82   1.00000001433601592993e+00
83   1.00000000001328337440e+00
84   9.99999999991777244190e-01
85   1.00000001458755605199e+00
86   1.00000000001223621204e+00
87   9.99999999991506682839e-01
88   1.00000001483909661815e+00
89   1.00000000001116862158e+00
90   9.99999999991443955238e-01
91   1.00000001509064406768e+00
92   1.00000000001010524997e+00
93   9.99999999991573407243e-01
94   1.00000001534218507793e+00
95   1.00000000000907030007e+00
96   9.99999999991902921437e-01
97   1.00000001559372919679e+00
98   1.00000000000808952905e+00
99   9.99999999992438493024e-01
100   1.00000001584526665432e+00
101   1.00000000000718780591e+00
102   9.99999999993168908752e-01
103   1.00000001609680677639e+00
104   1.00000000000638977760e+00
105   9.99999999994101607115e-01
106   1.00000001634835111730e+00
107   1.00000000000572208947e+00
108   9.99999999995239696737e-01
109   1.00000001659989412595e+00
110   1.00000000000520827825e+00
111   9.99999999996577182415e-01
112   1.00000001685144357388e+00
113   1.00000000000487498930e+00
114   9.99999999998125055356e-01
115   1.00000001710298791480e+00
116   1.00000000000474820183e+00
117   9.99999999999881206136e-01
118   1.00000001735452470619e+00
119   1.00000000000485389506e+00
120   1.00000000000157807101e+00
121   1.00000001652537573449e+00
122   1.00000000000555377966e+00
123   1.00000000000324562599e+00
124   1.00000001627048207276e+00
125   1.00000000000605338002e+00
126   1.00000000000471533923e+00
127   1.00000001601558752284e+00
128   1.00000000000672439882e+00
129   1.00000000000598676664e+00
130   1.00000001576070696174e+00
131   1.00000000000754174501e+00
132   1.00000000000705990821e+00
133   1.00000001550582195975e+00
134   1.00000000000848143777e+00
135   1.00000000000794075916e+00
136   1.00000001525092563348e+00
137   1.00000000000951905221e+00
138   1.00000000000862754312e+00
139   1.00000001499603818900e+00
140   1.00000000001062971933e+00
141   1.00000000000911337672e+00
142   1.00000001474115363109e+00
143   1.00000000001178923625e+00
144   1.00000000000940469924e+00
145   1.00000001448625908118e+00
146   1.00000000001297251195e+00
147   1.00000000000949529344e+00
148   1.00000001423137097056e+00
149   1.00000000001415489947e+00
150   1.00000000000938604749e+00
151   1.00000001397648263790e+00
152   1.00000000001531019755e+00
153   1.00000000000906674735e+00
154   1.00000001372159608160e+00
155   1.00000000001641309311e+00
156   1.00000000000854538662e+00
157   1.00000001346670441826e+00
158   1.00000000001743827305e+00
159   1.00000000000782440779e+00
160   1.00000001321181652969e+00
161   1.00000000001836020225e+00
162   1.00000000000689404089e+00
163   1.00000001295692642067e+00
164   1.00000000001915312353e+00
165   1.00000000000576272363e+00
166   1.00000001270204053050e+00
167   1.00000000001979305608e+00
168   1.00000000000444111414e+00
169   1.00000001244715419624e+00
170   1.00000000002025468682e+00
171   1.00000000000291855429e+00
172   1.00000001219225809201e+00
173   1.00000000002051447900e+00
174   1.00000000000119948496e+00
175   1.00000001193736487437e+00
176   1.00000000002054689752e+00
177   9.99999999999289568287e-01
178   1.00000001168248231487e+00
179   1.00000000002068212268e+00
180   9.99999999997268518293e-01
181   1.00000001191024545655e+00
182   1.00000000002022093604e+00
183   9.99999999995394017738e-01
184   1.00000001128339066625e+00
185   1.00000000001953970319e+00
186   9.99999999993738675208e-01
187   1.00000001065653476573e+00
188   1.00000000001866462540e+00
189   9.99999999992300492302e-01
190   1.00000001002967797703e+00
191   1.00000000001762301416e+00
192   9.99999999991069032923e-01
193   1.00000000940282585127e+00
194   1.00000000001644107073e+00
195   9.99999999990059618149e-01
196   1.00000000877597083893e+00
197   1.00000000001514766090e+00
198   9.99999999989279686474e-01
199   1.00000000814911249591e+00
200   1.00000000001377031822e+00
201   9.99999999988720245092e-01
202   1.00000000752225925993e+00
203   1.00000000001233657621e+00
204   9.99999999988377297200e-01
205   1.00000000689540446963e+00
206   1.00000000001087263612e+00
207   9.99999999988236409898e-01
208   1.00000000626854701480e+00
209   1.00000000000940403311e+00
210   9.99999999988301468967e-01
211   1.00000000564169511108e+00
212   1.00000000000795630228e+00
213   9.99999999988570364984e-01
214   1.00000000501484054283e+00
215   1.00000000000655542287e+00
216   9.99999999989042320792e-01
217   1.00000000438798619662e+00
218   1.00000000000522559773e+00
219   9.99999999989714338788e-01
220   1.00000000376112896383e+00
221   1.00000000000399236200e+00
222   9.99999999990581422971e-01
223   1.00000000313427439558e+00
224   1.00000000000287925239e+00
225   9.99999999991646237874e-01
226   1.00000000250742049346e+00
227   1.00000000000191180405e+00
228   9.99999999992907784296e-01
229   1.00000000188056437089e+00
230   1.00000000000111444187e+00
231   9.99999999994371058243e-01
232   1.00000000125370958060e+00
233   1.00000000000051292304e+00
234   9.99999999996038058114e-01
235   1.00000000062685523439e+00
236   1.00000000000013322676e+00
237   9.99999999997913113781e-01
