%%MatrixMarket vector coordinate real general
420
1   1.00000000000009614531e+00
2   9.99999999999490296609e-01
3   9.99999999999917621452e-01
4   1.00000000021595703004e+00
5   1.00000000000103694830e+00
6   9.99999999998467670181e-01
7   9.99999999903828484804e-01
8   9.99999999999743871548e-01
9   9.99999999790332938510e-01
10   1.00000000000050404125e+00
11   9.99999999999382938043e-01
12   1.00000000000043209880e+00
13   9.99999999999948263607e-01
14   1.00000000000100675024e+00
15   1.00000000000229416486e+00
16   9.99999999967786212807e-01
17   1.00000000000068611783e+00
18   9.99999999962699281930e-01
19   9.99999999999209521206e-01
20   9.99999999999183875055e-01
21   9.99999999984915954876e-01
22   1.00000000000245892195e+00
23   1.00000000000022359892e+00
24   9.99999999999591770994e-01
25   1.00000000010236922421e+00
26   9.99999999999507060977e-01
27   9.99999999993023802602e-01
28   1.00000000000097255537e+00
29   9.99999999998322675054e-01
30   9.99999999948421813833e-01
31   1.00000000000061928240e+00
32   9.99999999998936961454e-01
33   1.00000000002099098673e+00
34   1.00000000000023536728e+00
35   9.99999999999895083924e-01
36   9.99999999907865366744e-01
37   1.00000000000051292304e+00
38   1.00000000000090594199e+00
39   1.00000000000055111471e+00
40   9.99999999998554267577e-01
41   9.99999999999976352250e-01
42   9.99999999999989452881e-01
43   1.00000000000061528560e+00
44   9.99999999885342383266e-01
45   1.00000000001611333289e+00
46   1.00000000000077204909e+00
47   1.00000000005193667718e+00
48   9.99999999999172883847e-01
49   9.99999999941638351153e-01
50   9.99999999999213851076e-01
51   9.99999999999817923424e-01
52   1.00000000000098787645e+00
53   9.99999999969145014767e-01
54   1.00000000017646994976e+00
55   1.00000000000076938456e+00
56   1.00000000000029420910e+00
57   9.99999999894615299034e-01
58   1.00000000000051203486e+00
59   9.99999999999290567487e-01
60   1.00000000017238988015e+00
61   1.00000000000064548367e+00
62   1.00000000000095168318e+00
63   9.99999999991690979861e-01
64   9.99999999998552713265e-01
65   1.00000000000089572794e+00
66   1.00000000004772893192e+00
67   1.00000000000019340085e+00
68   1.00000000000050692783e+00
69   1.00000000011702372404e+00
70   1.00000000000153832502e+00
71   1.00000000000017696955e+00
72   9.99999999984111265228e-01
73   1.00000000000034683367e+00
74   1.00000000000135025324e+00
75   9.99999999920135884679e-01
76   1.00000000000009325873e+00
77   9.99999999998900990228e-01
78   9.99999999950654805403e-01
79   1.00000000000188871141e+00
80   9.99999999999509836535e-01
81   1.00000000000492517138e+00
82   1.00000000000060396133e+00
83   1.00000000000200395256e+00
84   9.99999999971457276260e-01
85   9.99999999998690936032e-01
86   1.00000000000076005868e+00
87   9.99999999998351429831e-01
88   9.99999999999720334820e-01
89   9.99999999967958741465e-01
90   9.99999999993990029701e-01
91   1.00000000000004374279e+00
92   1.00000000000087663210e+00
93   1.00000000000046651571e+00
94   1.00000000000047939430e+00
95   1.00000000000182875937e+00
96   9.99999999998293920278e-01
97   9.99999999943657291723e-01
98   9.99999999998671174062e-01
99   9.99999999986740495395e-01
100   1.00000000000197264427e+00
101   9.99999999998629096609e-01
102   1.00000000000010302870e+00
103   9.99999999997061572721e-01
104   1.00000000002991629167e+00
105   9.99999999765271208041e-01
106   1.00000000000130406796e+00
107   1.00000000000067079675e+00
108   9.99999999941344586141e-01
109   9.99999999998613220420e-01
110   9.99999999999877875467e-01
111   1.00000000007995870632e+00
112   9.99999999999306776743e-01
113   1.00000000000100985886e+00
114   1.00000000000131494815e+00
115   9.99999999999591770994e-01
116   9.99999999988450016808e-01
117   9.99999999974847786355e-01
118   1.00000000000013278267e+00
119   9.99999999999526378858e-01
120   9.99999999998517186128e-01
121   9.99999999999514055382e-01
122   1.00000000005532774239e+00
123   9.99999999996135091607e-01
124   9.99999999999776290061e-01
125   1.00000000000080913054e+00
126   9.99999999994958255201e-01
127   1.00000000000051980642e+00
128   1.00000000000187982963e+00
129   9.99999999971508124474e-01
130   1.00000000000040101256e+00
131   9.99999999999017674668e-01
132   1.00000000000031197267e+00
133   1.00000000000117972299e+00
134   1.00000000000026667557e+00
135   1.00000000000274891221e+00
136   1.00000000001449684817e+00
137   9.99999999998517408173e-01
138   9.99999999998801958334e-01
139   9.99999999925099469777e-01
140   1.00000000000215560902e+00
141   9.99999999999603206291e-01
142   1.00000000000186450855e+00
143   1.00000000000292099678e+00
144   1.00000000003624034406e+00
145   1.00000000002055178250e+00
146   9.99999999998428368286e-01
147   1.00000000000137312384e+00
148   9.99999999982099652129e-01
149   9.99999999999317434884e-01
150   1.00000000000059352523e+00
151   9.99999999998966493386e-01
152   9.99999999999338529122e-01
153   1.00000000001263966709e+00
154   9.99999999953129492525e-01
155   1.00000000000049205084e+00
156   1.00000000002001709909e+00
157   9.99999999999925170968e-01
158   9.99999999998774868892e-01
159   1.00000000001242272951e+00
160   9.99999999999957256414e-01
161   1.00000000000206101802e+00
162   1.00000000001198552368e+00
163   1.00000000000136490819e+00
164   9.99999999999074851154e-01
165   9.99999999981785125946e-01
166   1.00000000000048805404e+00
167   9.99999999998980704241e-01
168   9.99999999980674458833e-01
169   1.00000000000096589403e+00
170   9.99999999999821809205e-01
171   9.99999999987181698025e-01
172   9.99999999999824251695e-01
173   1.00000000000075717210e+00
174   1.00000000000190891747e+00
175   1.00000000000242228460e+00
176   9.99999999954428786531e-01
177   1.00000000003785949332e+00
178   9.99999999999998778755e-01
179   9.99999999999721111976e-01
180   9.99999999949042539527e-01
181   9.99999999998595567874e-01
182   1.00000000000132338585e+00
183   1.00000000002357292139e+00
184   9.99999999994954480442e-01
185   9.99999999992244203995e-01
186   1.00000000002685740519e+00
187   1.00000000000045496940e+00
188   1.00000000000024824587e+00
189   1.00000000001101962965e+00
190   9.99999999999994670929e-01
191   9.99999999999631516978e-01
192   1.00000000034141645067e+00
193   1.00000000000011679546e+00
194   1.00000000000016453505e+00
195   1.00000000000099342756e+00
196   9.99999999998856470285e-01
197   1.00000000000074162898e+00
198   9.99999999999906297177e-01
199   1.00000000000013833379e+00
200   9.99999999981197928989e-01
201   1.00000000007912648314e+00
202   9.99999999998726574191e-01
203   9.99999999998087196751e-01
204   1.00000000000131050726e+00
205   1.00000000000041611159e+00
206   1.00000000002558042667e+00
207   9.99999999994523269820e-01
208   9.99999999999348077040e-01
209   1.00000000000040745185e+00
210   9.99999999985455745311e-01
211   1.00000000000017230661e+00
212   1.00000000000187960758e+00
213   1.00000000000067612582e+00
214   9.99999999999780397886e-01
215   1.00000000003576294816e+00
216   9.99999999954107043898e-01
217   1.00000000000127275968e+00
218   9.99999999999477862112e-01
219   1.00000000006066391833e+00
220   9.99999999999222843883e-01
221   1.00000000000091482377e+00
222   9.99999999915485271451e-01
223   9.99999999998322897099e-01
224   9.99999999995281108056e-01
225   9.99999999983143816884e-01
226   1.00000000000469047023e+00
227   1.00000000000424127400e+00
228   1.00000000002527045240e+00
229   1.00000000000149169566e+00
230   1.00000000000000865974e+00
231   1.00000000008033751442e+00
232   9.99999999999486521851e-01
233   9.99999999999136579554e-01
234   1.00000000012411893735e+00
235   9.99999999999700017739e-01
236   1.00000000000120681243e+00
237   9.99999999998954391955e-01
238   9.99999999997157495990e-01
239   9.99999999973209319215e-01
240   9.99999999984228726824e-01
241   9.99999999999463540235e-01
242   1.00000000000038502534e+00
243   9.99999999931970084965e-01
244   9.99999999999538813356e-01
245   1.00000000000059086069e+00
246   1.00000000009787903821e+00
247   1.00000000000019140245e+00
248   1.00000000000080024876e+00
249   9.99999999938647854414e-01
250   9.99999999999677813278e-01
251   1.00000000000012079227e+00
252   1.00000000003129385640e+00
253   9.99999999997357780224e-01
254   9.99999999999235056336e-01
255   9.99999999979361176017e-01
256   9.99999999996719735051e-01
257   9.99999999999947819518e-01
258   1.00000000030185343114e+00
259   9.99999999999516497873e-01
260   1.00000000000037836401e+00
261   1.00000000000093192121e+00
262   9.99999999999653166327e-01
263   9.99999999977316700317e-01
264   1.00000000001084843326e+00
265   1.00000000000100541797e+00
266   1.00000000000126987310e+00
267   9.99999999950339835131e-01
268   9.99999999999319322264e-01
269   1.00000000000036082248e+00
270   9.99999999999097277659e-01
271   9.99999999997619126724e-01
272   1.00000000000039390713e+00
273   1.00000000007498068832e+00
274   1.00000000005665246050e+00
275   9.99999999998755995101e-01
276   1.00000000000001443290e+00
277   1.00000000003565703288e+00
278   9.99999999999223398994e-01
279   9.99999999953045670686e-01
280   1.00000000000026711966e+00
281   1.00000000000463895589e+00
282   1.00000000000011901591e+00
283   9.99999999998320898698e-01
284   9.99999999753245272238e-01
285   1.00000000011370260289e+00
286   9.99999999999274913343e-01
287   9.99999999999424127317e-01
288   1.00000000000000111022e+00
289   9.99999999999762745340e-01
290   1.00000000000120192745e+00
291   9.99999999999661826067e-01
292   1.00000000000061284311e+00
293   9.99999999988608778700e-01
294   1.00000000010483836022e+00
295   9.99999999997822519582e-01
296   1.00000000000061795014e+00
297   9.99999999930115124336e-01
298   9.99999999999141020446e-01
299   9.99999999999613975454e-01
300   1.00000000005589506635e+00
301   1.00000000000031041836e+00
302   1.00000000000102984288e+00
303   9.99999999884988999277e-01
304   9.99999999999784505711e-01
305   1.00000000000076583184e+00
306   9.99999999946771911397e-01
307   9.99999999998592681294e-01
308   9.99999999998037902849e-01
309   9.99999999981674436711e-01
310   1.00000000000006261658e+00
311   9.99999999998047672811e-01
312   1.00000000006985501066e+00
313   1.00000000000118927090e+00
314   9.99999999999460764677e-01
315   1.00000000000161470837e+00
316   1.00000000000116573418e+00
317   9.99999999999789501715e-01
318   9.99999999950127005377e-01
319   1.00000000000069388939e+00
320   9.99999999999845679000e-01
321   9.99999999999156674590e-01
322   1.00000000000010103030e+00
323   9.99999999977268294593e-01
324   9.99999999869395139740e-01
325   9.99999999999195310352e-01
326   9.99999999997802868634e-01
327   9.99999999993084642824e-01
328   1.00000000000101141318e+00
329   1.00000000000132094335e+00
330   9.99999999809057404931e-01
331   9.99999999999587774191e-01
332   1.00000000000119126931e+00
333   9.99999999928967153728e-01
334   1.00000000000046007642e+00
335   9.99999999999941935336e-01
336   9.99999999999711564058e-01
337   9.99999999914832016223e-01
338   9.99999999999473421219e-01
339   9.99999999991174726155e-01
340   1.00000000000065836225e+00
341   9.99999999999380162485e-01
342   1.00000000000056021854e+00
343   1.00000000000091104901e+00
344   9.99999999964133357011e-01
345   9.99999999979366949177e-01
346   9.99999999999618083280e-01
347   9.99999999999972022380e-01
348   1.00000000004497691108e+00
349   9.99999999998788635658e-01
350   1.00000000000088418162e+00
351   1.00000000004186961888e+00
352   1.00000000000014188650e+00
353   1.00000000000100874864e+00
354   1.00000000015516543606e+00
355   1.00000000000074651396e+00
356   1.00000000000112110321e+00
357   9.99999999995195287816e-01
358   1.00000000000003974598e+00
359   9.99999999999525934768e-01
360   9.99999999998579247595e-01
361   1.00000000000181299420e+00
362   1.00000000006741918135e+00
363   1.00000000011802514521e+00
364   1.00000000000551225732e+00
365   9.99999999998057331752e-01
366   1.00000000000242073028e+00
367   9.99999999973975484124e-01
368   9.99999999998492317133e-01
369   1.00000000017838885924e+00
370   1.00000000000023581137e+00
371   1.00000000000138777878e+00
372   1.00000000008501310766e+00
373   9.99999999997898125770e-01
374   1.00000000000010103030e+00
375   9.99999999968069319678e-01
376   1.00000000000624367225e+00
377   9.99999999999641064896e-01
378   9.99999999998560373804e-01
379   9.99999999999535260642e-01
380   1.00000000004832156897e+00
381   9.99999999998404720536e-01
382   1.00000000000213562501e+00
383   1.00000000000272426526e+00
384   9.99999999998340771690e-01
385   1.00000000000125455202e+00
386   9.99999999996086907927e-01
387   1.00000000010664713557e+00
388   1.00000000000062527761e+00
389   9.99999999998824606884e-01
390   1.00000000001021938090e+00
391   1.00000000000119348975e+00
392   9.99999999999618860436e-01
393   1.00000000000243161047e+00
394   9.99999999999456545829e-01
395   9.99999999998619770736e-01
396   1.00000000000075828233e+00
397   1.00000000000088440366e+00
398   9.99999999703895525727e-01
399   1.00000000014045364871e+00
400   9.99999999998293587211e-01
401   9.99999999997524535722e-01
402   1.00000000001012256945e+00
403   9.99999999999585220678e-01
404   9.99999999998389066391e-01
405   9.99999999917480009159e-01
406   9.99999999997919664096e-01
407   1.00000000000070810025e+00
408   9.99999999985214271803e-01
409   1.00000000000075583984e+00
410   1.00000000000014765966e+00
411   9.99999999838562247945e-01
412   1.00000000000001798561e+00
413   1.00000000000014832580e+00
414   1.00000000025428859018e+00
415   9.99999999991826649115e-01
416   1.00000000000394151378e+00
417   9.99999999760407654037e-01
418   1.00000000000026623148e+00
419   9.99999999999041655485e-01
420   9.99999999976396325430e-01
