%%MatrixMarket matrix array real general
811 1
6.6104166666666699936349971267190994694828987121582031250000000000e-02
-1.8191875336880217184365449156757676973938941955566406250000000000e-01
4.5854594986379793031261442592949606478214263916015625000000000000e-01
-9.0465571489998022891576567872107261791825294494628906250000000000e-03
5.3511727983685974940897267515538260340690612792968750000000000000e-02
-6.2496995701074219142778787272618501447141170501708984375000000000e-02
1.0299346917261008056004856214826759241987019777297973632812500000e-03
-6.6104166666666699936349971267190994694828987121582031250000000000e-02
1.3020833333333000844667104445306904381141066551208496093750000000e-03
-1.4726832567719600960987058613227418391034007072448730468750000000e-02
8.5426776458794789759210175361658912152051925659179687500000000000e-02
-2.1110754787549823596748410636791959404945373535156250000000000000e-01
4.6595954652693893915937906058388762176036834716796875000000000000e-01
-9.0397693192307004839136652663000859320163726806640625000000000000e-03
6.0769392785750542262945828042575158178806304931640625000000000000e-01
-1.5552140227501499297746434535838488955050706863403320312500000000e-02
2.2920204179329972671297355191200040280818939208984375000000000000e-01
-4.6382478260681000645226923495556548004969954490661621093750000000e-03
1.4703313378246399278914680053276242688298225402832031250000000000e-01
-1.5769419140765150721961163071682676672935485839843750000000000000e-01
5.8325419529882994995606537713683792389929294586181640625000000000e-03
2.4369936372029610271994215509039349853992462158203125000000000000e-02
-2.1474604075134601233187936486501712352037429809570312500000000000e-02
7.6836410164019984178618294379248254699632525444030761718750000000e-04
1.3668559404828878323101548630802426487207412719726562500000000000e-01
4.9587925652331776849024436160107143223285675048828125000000000000e-02
-2.3830255944208003290873953972095478093251585960388183593750000000e-03
-8.7329391407768477972872744885535212233662605285644531250000000000e-02
7.2654223246874830022257185646594734862446784973144531250000000000e-02
-6.4206808847285315455799548089999007061123847961425781250000000000e-02
-1.2334099654785284083668983612369629554450511932373046875000000000e-01
-6.0714555941660919291535947195370681583881378173828125000000000000e-02
8.8944613859662999266753047322708880528807640075683593750000000000e-03
-5.4084468274155006115022636947742284974083304405212402343750000000e-03
-5.0555733489306677042041116010295809246599674224853515625000000000e-02
-4.6226543056349994262332891992173244943842291831970214843750000000e-03
-2.8784896058372491656207614596496568992733955383300781250000000000e-02
-1.3580688752160263721435740080778487026691436767578125000000000000e-01
2.2615598389960005036580792392442162963561713695526123046875000000e-03
-1.9400713117501025561928429397084983065724372863769531250000000000e-01
1.9551732022044598924281899599009193480014801025390625000000000000e-01
-3.5566354684535995273053643472849216777831315994262695312500000000e-03
1.1785949407487020246243503152072662487626075744628906250000000000e-01
2.9149137156073014198742754388149478472769260406494140625000000000e-02
-2.3442873301185204737429046417673816904425621032714843750000000000e-02
-3.0516180727447078657732504325394984334707260131835937500000000000e-01
-7.9019008390989972125117990486842245445586740970611572265625000000e-04
-2.4970299508999000553943758973218791652470827102661132812500000000e-03
6.7145763284970211293156694409844931215047836303710937500000000000e-02
-4.4873212754249813816187497650389559566974639892578125000000000000e-01
5.1075643789341013123461721079365815967321395874023437500000000000e-03
-1.3450167282850636341073879975738236680626869201660156250000000000e-01
3.2558600354367067675198654796986375004053115844726562500000000000e-01
-4.6464178838715014530080793520028237253427505493164062500000000000e-01
1.0404971128065701110876339896549325203523039817810058593750000000e-02
-3.7699520855830859211721417523222044110298156738281250000000000000e-01
7.9347257520961996662967052884596341755241155624389648437500000000e-03
-1.4947183798993782244401984371506841853260993957519531250000000000e-01
9.5408355382791701360112313068384537473320960998535156250000000000e-02
-2.4087708872573751484047477333660935983061790466308593750000000000e-01
1.6369371054037173962569795548915863037109375000000000000000000000e-01
1.5381197983896997393687966493303065362852066755294799804687500000e-03
-1.2757247706648999503037389402493317902553826570510864257812500000e-03
-6.6552726622700897340934034218662418425083160400390625000000000000e-02
2.3057261623958796858957498443487565964460372924804687500000000000e-01
-2.7424652410581000505640503206450375728309154510498046875000000000e-03
4.1278420804774063057607236260082572698593139648437500000000000000e-01
-5.9532163814926974954033767062355764210224151611328125000000000000e-01
1.3117998669479300627438433934912609402090311050415039062500000000e-02
1.0063113013938000325775412591156054986640810966491699218750000000e-02
1.3247553711917889329718889257492264732718467712402343750000000000e-01
-2.4671797127354001127885751998292107600718736648559570312500000000e-03
2.5878476107563574970527042751200497150421142578125000000000000000e-01
2.2950391474503593208789098412125895265489816665649414062500000000e-02
1.3403102555803891871022415216430090367794036865234375000000000000e-01
-1.2324326542037526699413518826986546628177165985107421875000000000e-01
2.7019330732644996143076987493714113952592015266418457031250000000e-03
-1.6047669377910998584485513518416155420709401369094848632812500000e-03
2.8557691849993260824192020663758739829063415527343750000000000000e-01
-8.2970009233430064288228322766372002661228179931640625000000000000e-02
8.6449921184941574958671139938815031200647354125976562500000000000e-02
-1.3448491499687922900996284170105354860424995422363281250000000000e-01
8.4174896467982002895569237921336025465279817581176757812500000000e-03
-1.8141057513608998142534689534954850387293845415115356445312500000e-03
1.4698980801616434721523773987428285181522369384765625000000000000e-01
-2.6795948474555097984506346620037220418453216552734375000000000000e-01
8.2031831549715002183109646693992544896900653839111328125000000000e-03
-9.3408099065309196928907908841210883110761642456054687500000000000e-02
1.3029568107516106834076197173999389633536338806152343750000000000e-01
-1.2503441713528002428995611339246352144982665777206420898437500000e-03
3.7105061676290429506508417034638114273548126220703125000000000000e-01
-1.3825115898625223165296915794897358864545822143554687500000000000e-01
2.7734723656598000984807583790825447067618370056152343750000000000e-03
3.3837578681497504362596373539417982101440429687500000000000000000e-02
-2.9410831639786805258296453757793642580509185791015625000000000000e-02
-2.7738561921853009846483661959837263566441833972930908203125000000e-03
1.7180524823113108023875383878475986421108245849609375000000000000e-02
-1.9610170501400470133290809826576150953769683837890625000000000000e-01
1.9805211109111875433796967627131380140781402587890625000000000000e-01
1.1044895545281657733838187596120405942201614379882812500000000000e-01
4.3251919035191994933331471884230268187820911407470703125000000000e-03
-1.9301769876407990321476315642712506814859807491302490234375000000e-03
2.5560447609913017341654040137655101716518402099609375000000000000e-01
-2.4793826526746401417433673941559391096234321594238281250000000000e-01
1.8804968306176000382434754243377028615213930606842041015625000000e-03
-1.4224455665991309061269021185580641031265258789062500000000000000e-01
-6.4441993029316038676945765928394393995404243469238281250000000000e-02
2.2389117235178362941283580767048988491296768188476562500000000000e-02
4.4765031274513333858777741625090129673480987548828125000000000000e-01
-2.7145390596150001903674731096316463663242757320404052734375000000e-03
-1.8221055013061997554513204988779762061312794685363769531250000000e-03
-2.2124324351366864149781576998066157102584838867187500000000000000e-01
3.9758743887500780367361130629433318972587585449218750000000000000e-01
-8.4088922802144014378988856606156332418322563171386718750000000000e-03
3.0731459431532232029482543111953418701887130737304687500000000000e-01
-2.9268100992572804175395617676258552819490432739257812500000000000e-01
1.4039296971257173018976516232214635238051414489746093750000000000e-01
-2.0956267840089612408682739896903512999415397644042968750000000000e-01
3.3973436785549915306603452336275950074195861816406250000000000000e-01
-1.0205167863586002419129528107077931053936481475830078125000000000e-02
2.2731431605640993812156303022220527054741978645324707031250000000e-03
5.3408380778637486174797999183283536694943904876708984375000000000e-02
1.4045389912536732079928469829610548913478851318359375000000000000e-01
-2.4809471110640995972218547649390529841184616088867187500000000000e-03
5.2014344174663572351047235997612006030976772308349609375000000000e-02
-3.7987118825613708228416953716077841818332672119140625000000000000e-01
6.4486196599549194807821095309918746352195739746093750000000000000e-01
-5.7194806175557194594105681062501389533281326293945312500000000000e-02
8.2574263817339907736703175089587602997198700904846191406250000000e-04
-7.6743299388255994258889458592420851346105337142944335937500000000e-03
1.3453832397937401377241428690467728301882743835449218750000000000e-01
-6.1923755561010351833317599812289699912071228027343750000000000000e-01
1.3743126594973989473835729313577758148312568664550781250000000000e-01
-1.0223637289931100657902618422667728736996650695800781250000000000e-02
-6.3490489078970018671510544550073973368853330612182617187500000000e-04
-2.8483556317749786357396146740939002484083175659179687500000000000e-01
2.8433386261739906908374564409314189106225967407226562500000000000e-01
-2.7605076764659008080327051715130437514744699001312255859375000000e-03
6.9016191303697377312786898073682095855474472045898437500000000000e-02
1.8185243561573638526596141673508100211620330810546875000000000000e-01
4.3518756712128993380250818745480501092970371246337890625000000000e-03
-2.8530336932543609584911337151424959301948547363281250000000000000e-01
-2.0943156076387731134857972392637748271226882934570312500000000000e-01
-1.0617376377439045886941215712795383296906948089599609375000000000e-01
5.2450869114665210624082192225614562630653381347656250000000000000e-01
-3.7692806363633224453479897420038469135761260986328125000000000000e-01
4.1019118813996995054349525844372692517936229705810546875000000000e-03
-5.9170252039322012230226910389774275245144963264465332031250000000e-03
4.4043284188773390575022403936600312590599060058593750000000000000e-01
-1.0358827686372269472059315376100130379199981689453125000000000000e+00
-4.9080377370454989285897262618618697160854935646057128906250000000e-03
-1.6361376776148942036037681191373849287629127502441406250000000000e-01
8.7678191251746098733299561445164727047085762023925781250000000000e-02
-2.0265350226602004204967677480908605502918362617492675781250000000e-03
6.6292460682304432673106475704116746783256530761718750000000000000e-02
1.3328119086546419413963349143159575760364532470703125000000000000e-01
1.1258889610755013193504892043961262970697134733200073242187500000e-03
-1.1966769368928267813778631989407585933804512023925781250000000000e-01
3.3071714191133250171361623870325274765491485595703125000000000000e-01
-6.1784049358872003901432812256189208710566163063049316406250000000e-03
1.5640275651154239566764658775355201214551925659179687500000000000e-01
2.0275709361254515283867760899738641455769538879394531250000000000e-02
-5.3469864901545998206455756474042573245242238044738769531250000000e-03
-1.5886069546388789652802131513453787192702293395996093750000000000e-01
5.8221554560583932413919683312997221946716308593750000000000000000e-01
-1.1004142617119700570116336280079849530011415481567382812500000000e-02
1.5609900311466526345860472702042898163199424743652343750000000000e-01
5.2793582432179901597901761078901472501456737518310546875000000000e-02
2.1254705269105247933403290971909882500767707824707031250000000000e-01
-7.1327757756820004547693159224763803649693727493286132812500000000e-03
5.9638531760851509755383403899031691253185272216796875000000000000e-01
-1.1452835765422799546575660656344552990049123764038085937500000000e-02
4.2564149382825627876414387174008879810571670532226562500000000000e-01
-1.9328698668341997256303610441818818799220025539398193359375000000e-03
1.2070693436741999904349142980208853259682655334472656250000000000e-01
-2.1644836547051937714059022255241870880126953125000000000000000000e-01
2.0524106544606000347708008035851889871992170810699462890625000000e-03
-3.6147964653952868729902547784149646759033203125000000000000000000e-01
1.7503234690078900426257746403280179947614669799804687500000000000e-01
-1.7172672691168142100615057188406353816390037536621093750000000000e-01
5.6041281404260168130804231623187661170959472656250000000000000000e-01
1.2400587053089003053418792887896415777504444122314453125000000000e-03
7.1541827952423010794635871434365981258451938629150390625000000000e-03
-5.5803349955097880652488129271660000085830688476562500000000000000e-01
2.0917195758737477939703808260674122720956802368164062500000000000e-01
-4.2965128057592388843843878021289128810167312622070312500000000000e-01
5.5993642224241413352103791112313047051429748535156250000000000000e-01
-4.0319715152881997755063281374532380141317844390869140625000000000e-03
5.1504267973287998216846972354687750339508056640625000000000000000e-03
-1.2698396830895589126875222518719965592026710510253906250000000000e-01
-6.3072363015213711578965671833429951220750808715820312500000000000e-02
-2.8632333054898062574267214586143381893634796142578125000000000000e-01
2.6581500288175002877366637221712153404951095581054687500000000000e-01
-1.7785992061944833064757176543935202062129974365234375000000000000e-01
1.7620207741876991840157540281097681145183742046356201171875000000e-03
-6.9110843934196003468528601842990610748529434204101562500000000000e-03
-1.3672685726396444083619030607223976403474807739257812500000000000e-01
-5.9956069969650995638010826382924278732389211654663085937500000000e-03
4.0345929377736106102858570920943748205900192260742187500000000000e-01
-3.9101447385507392962011863346560858190059661865234375000000000000e-01
2.1454324474880995948788964255982136819511651992797851562500000000e-03
-1.3673368482951392399726842086238320916891098022460937500000000000e-01
1.1610259452499477328402122111583594232797622680664062500000000000e-01
-9.9731267284519128923925279650575248524546623229980468750000000000e-02
3.2107291430738932325184009641816373914480209350585937500000000000e-01
-1.3368655633571271956760995180957252159714698791503906250000000000e-01
1.5549301990429005917992988372589024947956204414367675781250000000e-03
-5.5455416409940999980521247891829261789098381996154785156250000000e-03
2.8596194048795842146404311279184184968471527099609375000000000000e-01
-2.4263981173277002559296455785897705936804413795471191406250000000e-03
7.3326750297275422596499083738308399915695190429687500000000000000e-02
-1.4631954102092498137821507953049149364233016967773437500000000000e-01
1.0490133784538398231678257843668689019978046417236328125000000000e-01
-1.9410798543173063412936585336865391582250595092773437500000000000e-01
1.9909464305477508894171023712260648608207702636718750000000000000e-01
1.2581105432042449798757388634840026497840881347656250000000000000e-01
8.2532380127439968105218515148635560763068497180938720703125000000e-04
-1.1129800894403001770838201878177642356604337692260742187500000000e-02
5.3001624606205210987752707296749576926231384277343750000000000000e-01
-1.0525377067937498332117485233538900502026081085205078125000000000e-02
6.5741565036506355301781923117232508957386016845703125000000000000e-01
-4.5499615759802001027645168562685284996405243873596191406250000000e-03
1.4222924736912259668919489286054158583283424377441406250000000000e-01
-1.4282439306103378307000184577191248536109924316406250000000000000e-01
9.7104551750180000905393606913662551960442215204238891601562500000e-04
-3.0015703808736582391958336302195675671100616455078125000000000000e-01
2.9089624940462432967080985690699890255928039550781250000000000000e-01
1.2268637861641005278728888683303921425249427556991577148437500000e-03
-5.6475106168735612899300946310177096165716648101806640625000000000e-02
5.6924325182898014019450272371614119037985801696777343750000000000e-02
1.5081977291751000411906824538732507789973169565200805664062500000e-03
-1.2888488944444415063017572720127645879983901977539062500000000000e-02
1.1190961922464069677740639008334255777299404144287109375000000000e-02
-1.2982896899369001427609893184467182436492294073104858398437500000e-03
6.5863283865097571601054937673325184732675552368164062500000000000e-02
-5.6523859904318497771047447031378396786749362945556640625000000000e-02
1.0514083742765006207475764199443801771849393844604492187500000000e-03
-8.8796881051996096045897388648882042616605758666992187500000000000e-02
7.1941287924892752259076189602637896314263343811035156250000000000e-02
-1.3334289425828000068968703928362629085313528776168823242187500000e-03
1.0262360778824523854790840005080099217593669891357421875000000000e-01
-3.1165733958841629336333767241740133613348007202148437500000000000e-01
1.7318725315349000476450314067733415868133306503295898437500000000e-03
-2.5797937698038292397839654768176842480897903442382812500000000000e-01
-4.6014727706952841812526600051569403149187564849853515625000000000e-02
-1.4634502977060370731976490787928923964500427246093750000000000000e-01
4.0889833004668019178495796950301155447959899902343750000000000000e-01
-5.8604762852108999160449798182526137679815292358398437500000000000e-03
1.7143212391221996759166357193748808640521019697189331054687500000e-03
-1.0531908539747339426106975679431343451142311096191406250000000000e-01
8.3015795207158821211734789358160924166440963745117187500000000000e-02
-1.1967545392462006041689459578947207774035632610321044921875000000e-03
1.1716961171859280321783103318011853843927383422851562500000000000e-01
-4.0841124727179178854896690609166398644447326660156250000000000000e-01
7.6294804719489010824684527278805035166442394256591796875000000000e-03
-2.7107386404016237113623333243594970554113388061523437500000000000e-01
1.2809677535570698769795683347183512523770332336425781250000000000e-01
-2.0283900122119997815051117839857397484593093395233154296875000000e-03
1.5990484497458792856328102516272338107228279113769531250000000000e-01
9.7272745331895713039038753322529373690485954284667968750000000000e-02
6.5024209583000001921870847354512079618871212005615234375000000000e-03
1.1808515936848854033236477789614582434296607971191406250000000000e-01
4.2686279270849464273496209898439701646566390991210937500000000000e-01
-2.8254822918613242688223863297025673091411590576171875000000000000e-01
2.7669075492488715006800248374929651618003845214843750000000000000e-01
-5.9155039710212017206591994522568711545318365097045898437500000000e-03
1.9373250006165998113316639717140787979587912559509277343750000000e-03
-1.8052122302536877107570489897625520825386047363281250000000000000e-01
-4.4024865401188786884212333916366333141922950744628906250000000000e-02
4.2345684462585207741280868276589899323880672454833984375000000000e-02
1.8767803799014959320601292347419075667858123779296875000000000000e-01
-8.2187639439279991555864501862060933490283787250518798828125000000e-04
-1.1690781143262004605765103093517609522677958011627197265625000000e-03
-8.0752295658332709504811930401046993210911750793457031250000000000e-02
7.2824011305977487396035030542407184839248657226562500000000000000e-02
-1.4229130445052001318478884783758076082449406385421752929687500000e-03
4.4965456028302284996467363953343010507524013519287109375000000000e-02
7.4011533056080006098831347571831429377198219299316406250000000000e-02
8.4209806736922812597789800292957806959748268127441406250000000000e-02
-1.6030264161741381023773556080413982272148132324218750000000000000e-01
-6.8737450684793199862099299934925511479377746582031250000000000000e-02
1.6186282553704999138954878645790813607163727283477783203125000000e-03
1.4657201661852998966079075771062889543827623128890991210937500000e-03
-7.1825496335454416807486666129989316686987876892089843750000000000e-02
1.6545405887831626801087736566842067986726760864257812500000000000e-01
-1.0852604330910001293603039940194321388844400644302368164062500000e-03
6.5582864471387794513823621400661068037152290344238281250000000000e-02
3.7670141104459625713829495907702948898077011108398437500000000000e-02
2.8003941954086002119606035876131500117480754852294921875000000000e-03
-6.3781847073372685552605787506763590499758720397949218750000000000e-02
9.2465945169159138861125768471538322046399116516113281250000000000e-02
-6.5285352017805653446202995837666094303131103515625000000000000000e-01
5.7360750157817025352002815452578943222761154174804687500000000000e-03
-3.1227391536955440010103757231263443827629089355468750000000000000e-01
1.3070735781752407245193126072990708053112030029296875000000000000e-01
-6.2069225028296001397953851608235709136351943016052246093750000000e-03
2.7952329765854466714358750323299318552017211914062500000000000000e-01
-1.0871383296158051989799275816039880737662315368652343750000000000e-01
1.5867380570808997664045136843924410641193389892578125000000000000e-03
7.7421612202716483253084334137383848428726196289062500000000000000e-02
1.0940842944773822298376586559243150986731052398681640625000000000e-01
-2.2111997643350007371199072991885259398259222507476806640625000000e-03
1.7526060168703130881517893158161314204335212707519531250000000000e-01
-8.5180580148367157633515489578712731599807739257812500000000000000e-02
1.0329334602616627170057483908749418333172798156738281250000000000e-01
-6.0346432819629010693707193979662406491115689277648925781250000000e-03
6.5530131111085812567473851686372654512524604797363281250000000000e-02
-7.5267003705333401786248259668354876339435577392578125000000000000e-02
-6.1177915616970001376484500354990814230404794216156005859375000000e-04
-1.1141570336126629947592903135955566540360450744628906250000000000e-01
7.6943296837320021910877620996416226262226700782775878906250000000e-04
-3.9611379893025128184902428074565250426530838012695312500000000000e-01
9.8109693954843008034671925088332500308752059936523437500000000000e-03
-1.5282100601203496559321592940250411629676818847656250000000000000e-01
3.0264410916402983975359575197217054665088653564453125000000000000e-01
-1.4606882190405429122748159898037556558847427368164062500000000000e-01
-3.8533833485259738615980040776776149868965148925781250000000000000e-03
-2.6451300672704000649382294341194210574030876159667968750000000000e-03
6.5177638750637994016767784444255084963515400886535644531250000000e-03
-1.9139605809947402015325224056141451001167297363281250000000000000e-01
-1.6046454886233998005790057916897239920217543840408325195312500000e-03
-7.2281666189247988432708957873273902805522084236145019531250000000e-03
9.4103880449097704330441160891496110707521438598632812500000000000e-02
-3.1758837631560588032897385346586816012859344482421875000000000000e-01
-7.7779940154731982970837123048113426193594932556152343750000000000e-02
-3.0956050937766006053708522927081503439694643020629882812500000000e-03
3.7407630845820005055513135516775946598500013351440429687500000000e-03
-2.8055040324431679277239481962169520556926727294921875000000000000e-01
6.9533621544213289333846716999687487259507179260253906250000000000e-02
-1.3161087878912020032728946716815698891878128051757812500000000000e-01
7.8987852702002214755339082330465316772460937500000000000000000000e-01
-1.3362764805440199844532855877332622185349464416503906250000000000e-02
1.0142273497874988025246878464713518042117357254028320312500000000e-03
-1.1948721940334761093538418208481743931770324707031250000000000000e-01
3.7706591008058421010673555429093539714813232421875000000000000000e-01
-2.1506036024997003675007789524897816590964794158935546875000000000e-03
5.1862171618437612197194397367638885043561458587646484375000000000e-02
-3.5103430791767559204785698057094123214483261108398437500000000000e-01
3.8422394000371994440823364413972740294411778450012207031250000000e-03
-8.6779898642521891005685574782546609640121459960937500000000000000e-02
-8.1709314190265627808607007409591460600495338439941406250000000000e-02
2.2537700885829998684317665436083188978955149650573730468750000000e-03
1.0277846891745405499829502105058054439723491668701171875000000000e-01
-3.2122258890297150646375712312874384224414825439453125000000000000e-01
6.2883629565463998456475991361003252677619457244873046875000000000e-03
-5.7115954701911775259759451728314161300659179687500000000000000000e-02
1.2598118544180919586850109226361382752656936645507812500000000000e-01
-6.0056240036940001722487458835075813112780451774597167968750000000e-03
-1.7728787691039724766506324726833554450422525405883789062500000000e-02
-2.7549694971897797923787720719701610505580902099609375000000000000e-01
5.7936060265175215455712987022707238793373107910156250000000000000e-01
-8.8402328671737997328738956070992571767419576644897460937500000000e-03
2.9275647017852468589893533135182224214076995849609375000000000000e-01
-9.6474444933298993121173481313235242851078510284423828125000000000e-03
2.8291253707361735392211699036124628037214279174804687500000000000e-01
1.5186628509552387022996100540694897063076496124267578125000000000e-02
9.3221372775902788809787580248666927218437194824218750000000000000e-01
-1.1480507214890420253361469349329126998782157897949218750000000000e-01
5.2125356595971988199478275305409624706953763961791992187500000000e-03
7.0931519971850027703186292171722016064450144767761230468750000000e-04
3.9495931043758070178029129237984307110309600830078125000000000000e-01
-5.2168464246702850317660704604350030422210693359375000000000000000e-01
1.0736606034696999714683762761069374391809105873107910156250000000e-02
8.7338070637482129870976521601733111310750246047973632812500000000e-03
2.9154526524892276917455546936253085732460021972656250000000000000e-01
-4.7980894487663655612053048571397084742784500122070312500000000000e-01
9.1716970804703000508251165001638582907617092132568359375000000000e-03
-4.8041195141852022221229390197549946606159210205078125000000000000e-01
9.7421427852673984915110594329235027544200420379638671875000000000e-03
-5.3030750958261409222505022853511036373674869537353515625000000000e-02
-1.1506934213730440896839013475982937961816787719726562500000000000e-01
-8.3897828401760000949227702449206844903528690338134765625000000000e-04
1.3689660517528071115300747351284371688961982727050781250000000000e-01
-1.2350713038760978423891145894231158308684825897216796875000000000e-01
2.0280520841220153749340227022912586107850074768066406250000000000e-01
-3.4743377177531231669860289912321604788303375244140625000000000000e-02
-6.4743370255639998492314113320844626286998391151428222656250000000e-04
-5.8739461909742005443768597672260511899366974830627441406250000000e-03
4.1085724643428334079686692348332144320011138916015625000000000000e-01
-4.2517025333500790829077686794335022568702697753906250000000000000e-01
7.7531372296868999310914816192052967380732297897338867187500000000e-03
2.5026801773466698236569882851654256228357553482055664062500000000e-02
1.8795496890422253022379095455107744783163070678710937500000000000e-01
1.2291513233092007505858900273665312852244824171066284179687500000e-03
1.5453438819716142083038334931188728660345077514648437500000000000e-01
-8.7821708462742717471449793720239540562033653259277343750000000000e-02
1.9161381586404227506115205414971569553017616271972656250000000000e-01
-2.6948431989077420434242071678454522043466567993164062500000000000e-01
2.5720138843875004625028068971914763096719980239868164062500000000e-03
-1.5158782720359001167792500908149122551549226045608520507812500000e-03
3.0252055501322872022029741856385953724384307861328125000000000000e-01
4.6202856417867289862133617361905635334551334381103515625000000000e-02
-1.6962060771276499249182734274654649198055267333984375000000000000e-01
-4.4316799034145487601321633519546594470739364624023437500000000000e-01
5.9932115846052999574844477592705516144633293151855468750000000000e-03
1.4909583175191003321519156443741849216166883707046508789062500000e-03
1.1010693802457120760163178374568815343081951141357421875000000000e-01
-2.9750222929418423944980531814508140087127685546875000000000000000e-01
1.7766990846419001160577666453832534898538142442703247070312500000e-03
-1.7564281324891387048303670326276915147900581359863281250000000000e-01
2.2315888225231989006047683687938842922449111938476562500000000000e-01
-3.2801303841794001228682198245678591774776577949523925781250000000e-03
-1.4867980309874613206733151571370399324223399162292480468750000000e-02
-1.1643525188281010629420819668666808865964412689208984375000000000e-01
5.2753220485379712090256987266911892220377922058105468750000000000e-02
-1.8715893368453384582039689121302217245101928710937500000000000000e-01
-4.3478019027159997035580918378627757192589342594146728515625000000e-04
-2.1787070891928993730812802454011034569703042507171630859375000000e-03
2.1636491661628323712740495921025285497307777404785156250000000000e-01
-1.0029556105875249427672457613880396820604801177978515625000000000e-01
-4.5149327300587777100915332084696274250745773315429687500000000000e-01
-1.0096366526510043293285434629069641232490539550781250000000000000e+00
3.8140279504712999714133303541530040092766284942626953125000000000e-03
4.2191559130461998849970228775418945588171482086181640625000000000e-03
1.5436647836291858548740663081844104453921318054199218750000000000e-01
-6.7069226619408162104463144714827649295330047607421875000000000000e-01
2.7286875294441994589667022097501103417016565799713134765625000000e-03
-1.6171376984581439795185531238530529662966728210449218750000000000e-01
-1.3270752973688515474748328415444120764732360839843750000000000000e-02
3.3760462550847993717928474666223337408155202865600585937500000000e-03
2.9682395557627577753478931299468968063592910766601562500000000000e-01
-4.9602379392545548064674676425056532025337219238281250000000000000e-01
6.2603333339902988291525431918671529274433851242065429687500000000e-03
7.0368365575139077416899624495272291824221611022949218750000000000e-02
-7.1429782607839872876631659437407506629824638366699218750000000000e-02
-4.0650178033528007112695767943932878552004694938659667968750000000e-03
1.1031954243820947525467346395089407451450824737548828125000000000e-01
-2.5964241630984380426738766800554003566503524780273437500000000000e-01
2.1726734724913003907187381003041082294657826423645019531250000000e-03
-6.6647179849832191567138295340555487200617790222167968750000000000e-02
-4.7827842503894504866401859999314183369278907775878906250000000000e-02
-1.0287498645317001613047613872709007409866899251937866210937500000e-03
3.2541921481679203509429498808458447456359863281250000000000000000e-01
-4.0542174309486818384318240759967011399567127227783203125000000000e-02
-8.6089585564670695339017925107327755540609359741210937500000000000e-02
-6.8974610465179320151207775779766961932182312011718750000000000000e-01
9.0563583366080141479059761877579148858785629272460937500000000000e-02
-5.4623300462289942069915582578687462955713272094726562500000000000e-04
2.9900904875321994424997029682344873435795307159423828125000000000e-03
-2.2550158069479914191290959024627227336168289184570312500000000000e-01
1.0380082906113932694758261732204118743538856506347656250000000000e-01
-2.0604698012000879914218387511937180534005165100097656250000000000e-01
-1.0928809059069219400406325348740210756659507751464843750000000000e-02
8.2668053000133079333267005495144985616207122802734375000000000000e-04
4.3791804915151905097658868726284708827733993530273437500000000000e-01
-1.3254567828402299967116562129376688972115516662597656250000000000e-02
2.6941444249748997680216078265402757097035646438598632812500000000e-03
-4.1514437482808153045965582350618205964565277099609375000000000000e-01
7.5372099591656006867257389103542664088308811187744140625000000000e-03
-2.4025630688802168677398185536731034517288208007812500000000000000e-01
3.9895193174338001301792999697681807447224855422973632812500000000e-03
-8.0982245534199581715739668652531690895557403564453125000000000000e-01
1.1031721706448099212805047386609658133238554000854492187500000000e-02
-9.6858617728471790853106426766316872090101242065429687500000000000e-02
1.0434490631630598256318620542515418492257595062255859375000000000e-01
-5.9067013443317994969561368634458631277084350585937500000000000000e-03
8.4179895804116403046357675066246883943676948547363281250000000000e-02
-1.6031371127630511530526291608111932873725891113281250000000000000e-01
3.2374829672707000280396094638035719981417059898376464843750000000e-03
1.6606465280111196158863151595141971483826637268066406250000000000e-01
4.7090768472731647786844177971943281590938568115234375000000000000e-01
-1.1025919849605749778476138089899905025959014892578125000000000000e+00
1.6523686150347396961457491215696791186928749084472656250000000000e-02
-7.1445240214480987273049095165333710610866546630859375000000000000e-01
1.4160255122058098067872045078274823026731610298156738281250000000e-02
1.6265791755344306129815734607291233260184526443481445312500000000e-02
2.2243581731516609556464914021489676088094711303710937500000000000e-02
7.4750151606430047593332410826860723318532109260559082031250000000e-04
3.5000393409052238391510059045685920864343643188476562500000000000e-01
-3.6664473585927565002506867131160106509923934936523437500000000000e-01
6.6571611117337021329420920778829895425587892532348632812500000000e-03
-9.5421359139102504554053041374572785571217536926269531250000000000e-02
3.6709300199865180225344829523237422108650207519531250000000000000e-01
-1.6169753992100002228105015689152423874475061893463134765625000000e-03
1.1193215326152886057720081680599832907319068908691406250000000000e-01
-4.0282792745055939764853292217594571411609649658203125000000000000e-01
6.6100023459206858067460643724189139902591705322265625000000000000e-01
-1.2413523913598099174260269705882819835096597671508789062500000000e-02
3.7813917784535122645905858007608912885189056396484375000000000000e-01
-2.8270010725796007426680045426792275975458323955535888671875000000e-03
3.6416795546125180216279204614693298935890197753906250000000000000e-01
-5.9857228094674919116613409642013721168041229248046875000000000000e-01
7.1900517744171990250356962803834903752431273460388183593750000000e-03
1.6035744231370709263206908445908993599005043506622314453125000000e-03
-9.0647454947193478735911753574328031390905380249023437500000000000e-03
-9.7147029658717007349899574819573899731040000915527343750000000000e-03
1.4288434589893925230619231570017291232943534851074218750000000000e-01
-1.5678890865621566974574818686960497871041297912597656250000000000e-01
-5.1582503473010022677913699595819707610644400119781494140625000000e-04
-4.1057214696064905229411223785973561462014913558959960937500000000e-03
8.0276724388137800370035535024726414121687412261962890625000000000e-03
-2.4974850137770999297659457738518540281802415847778320312500000000e-03
2.8674169712350966454650347259303089231252670288085937500000000000e-01
-4.5181901341513253100856672972440719604492187500000000000000000000e-01
7.6707956961780000143535929169047449249774217605590820312500000000e-03
7.6001708894189820564513127010286552831530570983886718750000000000e-02
1.3089241541577209537727810584328835830092430114746093750000000000e-01
1.2416807853411147843925022016264847479760646820068359375000000000e-01
3.1117089446304246891372713434975594282150268554687500000000000000e-01
-6.7829444826628471076901405467651784420013427734375000000000000000e-01
-1.7365047769648000487718864093267256976105272769927978515625000000e-03
-1.5597648114878993885756841564216301776468753814697265625000000000e-03
3.2931323041198640177995571320934686809778213500976562500000000000e-01
-5.9992334362092603061711315604043193161487579345703125000000000000e-01
6.6139094834263010072583632847909029806032776832580566406250000000e-03
-1.7151327820918610411737859067216049879789352416992187500000000000e-01
-6.8109230226393091545133984254789538681507110595703125000000000000e-02
1.8056321939010000141023759567815432092174887657165527343750000000e-03
-1.4147697167018177810682288964017061516642570495605468750000000000e-01
7.0811879569608743301145636905857827514410018920898437500000000000e-02
4.7629639453871004672880218322461587376892566680908203125000000000e-03
-4.3697101341954552866653216369741130620241165161132812500000000000e-01
1.6298505075146163534327570232562720775604248046875000000000000000e-01
-1.9394192594514847449715944094350561499595642089843750000000000000e-01
1.7167044398340913780032224167371168732643127441406250000000000000e-01
-1.0557177116261803190289114695588068570941686630249023437500000000e-02
8.5457005656238999719009896693933114875108003616333007812500000000e-03
-1.2261011895883402664231276446571428095921874046325683593750000000e-02
1.0765935592288489869305934121257450897246599197387695312500000000e-02
-9.9855020085914958372086402960121631622314453125000000000000000000e-17
-4.3756534390443857507335678747040219604969024658203125000000000000e-02
1.8843044447619011934336175073667618562467396259307861328125000000e-03
2.6351042530936746866032649450062308460474014282226562500000000000e-01
-2.6592018091859209727445545468071941286325454711914062500000000000e-01
3.4125383595560001073754285982886358397081494331359863281250000000e-04
-1.4133039385975003712769826336170808644965291023254394531250000000e-03
3.2791847675448897170280559976163203828036785125732421875000000000e-02
-1.6790836382319200559276595186020131222903728485107421875000000000e-02
1.7066668902488400100248000512692669872194528579711914062500000000e-02
-1.6882296292674701942981840829816064797341823577880859375000000000e-02
1.6134390308249999283415898609916894201887771487236022949218750000e-04
-2.9202546966100012396962137817268967410200275480747222900390625000e-05
4.8945966501957021560498262147120840381830930709838867187500000000e-03
1.2835222639079996685695927993720033555291593074798583984375000000e-04
2.9579543225518717397548584813193883746862411499023437500000000000e-01
-5.0760865660808236754508726562562515027821063995361328125000000000e-02
7.0590572331581113996179510650108568370342254638671875000000000000e-02
-5.8517299832576599727396171601867536082863807678222656250000000000e-02
1.9831111010635994046369390275685873348265886306762695312500000000e-03
-5.0118792916861000866224351568689598934724926948547363281250000000e-03
1.8855700611389430987330229072540532797574996948242187500000000000e-01
-1.1072428988779357827976213002330041490495204925537109375000000000e-01
2.7880889690005278280793277190241497009992599487304687500000000000e-01
-1.0106975237615400259327813614618207793682813644409179687500000000e-02
3.2487567243601456201673727264278568327426910400390625000000000000e-01
-2.7699388705142999680952620167317945742979645729064941406250000000e-03
1.2973978096539018345367821893887594342231750488281250000000000000e-01
1.4188819035501420984246578882448375225067138671875000000000000000e-01
2.4944845383268582361679932546394411474466323852539062500000000000e-01
7.0772997897109997215980836671178622054867446422576904296875000000e-04
1.2667038534078939315818956856674049049615859985351562500000000000e-01
-2.3687679438307998949775345920443214708939194679260253906250000000e-03
1.3934261221732940905226882932765875011682510375976562500000000000e-01
1.0182400978622381526594864453727495856583118438720703125000000000e-01
4.3156514819499025570337380486307665705680847167968750000000000000e-01
-3.6238630792492237953084099899569991976022720336914062500000000000e-01
1.9366859277889000162664601134565600659698247909545898437500000000e-03
-6.1306800041777990625813110625585977686569094657897949218750000000e-03
3.9875267142360121264132999385765288025140762329101562500000000000e-01
-1.7747288629852786545626486258697696030139923095703125000000000000e-01
-6.3397748930766842367923175061150686815381050109863281250000000000e-02
-4.0308516737183242018005557838478125631809234619140625000000000000e-01
4.4542267674731617077554801653604954481124877929687500000000000000e-01
6.5498250820814479800091589822841342538595199584960937500000000000e-02
1.3414671535637797544771032676180766429752111434936523437500000000e-02
-3.4143151946426993255390147652406085398979485034942626953125000000e-03
2.8484825703818999684258095328459603479132056236267089843750000000e-03
-1.5909655689370685860417609092110069468617439270019531250000000000e-01
3.5924799790641304131355582285323180258274078369140625000000000000e-01
-2.3976945106788001560449430371591006405651569366455078125000000000e-03
1.6569070935735830119028832996264100074768066406250000000000000000e-01
4.9032695225785287440611881493168766610324382781982421875000000000e-02
1.3748398746767365175003305921563878655433654785156250000000000000e-01
-1.9197254423455767380346514983102679252624511718750000000000000000e-01
-6.5454822969690041115087275613859674194827675819396972656250000000e-04
-2.8482860753768998209045637537428774521686136722564697265625000000e-03
1.9510141551898549372445756944216554984450340270996093750000000000e-01
-2.9826423192571660525373999917064793407917022705078125000000000000e-01
-2.1946122259799971665472639870131388306617736816406250000000000000e-04
-4.4393959699925997566816171513437438989058136940002441406250000000e-03
-3.2293222441592992974501719061208859784528613090515136718750000000e-03
-2.5030754542199997792796539730630911435582675039768218994140625000e-05
4.4759148592743347450095825479365885257720947265625000000000000000e-01
6.0883402477674597452761418026057071983814239501953125000000000000e-02
4.4244413155126116610205144752399064600467681884765625000000000000e-01
-1.1913801244731801742826604595393291674554347991943359375000000000e-01
8.7044804649685988962026783610781421884894371032714843750000000000e-03
-6.4651691209779999641726888626180880237370729446411132812500000000e-03
9.7925689547696995185255275373492622748017311096191406250000000000e-02
-5.5645990067833099590455248062426107935607433319091796875000000000e-02
3.0962110007758819607559530595608521252870559692382812500000000000e-01
-1.1895384003778361470260449550551129505038261413574218750000000000e-01
-7.7396082344959992588284691805711190681904554367065429687500000000e-04
-8.6403452645328997216989108665075036697089672088623046875000000000e-03
4.1268909786762730806941590344649739563465118408203125000000000000e-01
2.1928860249802448190159509522345615550875663757324218750000000000e-01
3.6245141531960987230087667398947814945131540298461914062500000000e-03
7.7349559416079070525706917749175772769376635551452636718750000000e-03
1.3884905497243787975136797285813372582197189331054687500000000000e-01
-3.2717222074785000038299465074942418141290545463562011718750000000e-03
1.5126905863787115658070092649722937494516372680664062500000000000e-01
1.3637293377863304866259852587973000481724739074707031250000000000e-02
3.0034012689274993540555769300226529594510793685913085937500000000e-03
-3.2576364412878305865106653982365969568490982055664062500000000000e-01
5.6641972317126643154949761083116754889488220214843750000000000000e-01
-6.8629690364376003466895248550372343743219971656799316406250000000e-03
1.0840542116972502750815721128674340434372425079345703125000000000e-02
-5.7033546327199854952816338027332676574587821960449218750000000000e-02
5.6013519490300545111693963917787186801433563232421875000000000000e-01
-1.0568073359603599378764293703625298803672194480895996093750000000e-02
7.2690865775037027951555046456633135676383972167968750000000000000e-01
-1.4842936346602001590477826198366528842598199844360351562500000000e-02
1.6970547595288720810202676148037426173686981201171875000000000000e-01
8.4858242910121617352814382684300653636455535888671875000000000000e-02
2.1906542015240003905274246420731287798844277858734130859375000000e-03
-4.0917408999639698352623895516444463282823562622070312500000000000e-01
5.9031555468372043371516610932303592562675476074218750000000000000e-01
-8.0228571168770995702956838613317813724279403686523437500000000000e-03
-1.4929454253662117341194814912341826129704713821411132812500000000e-02
2.0283848900854331565035693074605660513043403625488281250000000000e-01
-4.7308653529540007753179109428742776799481362104415893554687500000e-04
-1.3286691001054050723095834030118567170575261116027832031250000000e-03
8.7299983995394708768955638333864044398069381713867187500000000000e-02
4.4440397047999921284477942151625029509887099266052246093750000000e-05
-5.7343535519622850990528739600904373219236731529235839843750000000e-04
-3.0220441892752247792230946288327686488628387451171875000000000000e-01
1.8178518519543346299016661760106217116117477416992187500000000000e-01
-2.6920181731880510334065093047684058547019958496093750000000000000e-01
3.4666971024067991073713823624302676762454211711883544921875000000e-03
-1.0336547209536500746551723750599194318056106567382812500000000000e-02
1.1920460400273490131350939691401435993611812591552734375000000000e-01
9.4846037500404350994998026180837769061326980590820312500000000000e-02
2.3306536050851683894435950605839025229215621948242187500000000000e-01
-4.3217680292105993544726771915520657785236835479736328125000000000e-03
-5.5989584432116587531247375864040805026888847351074218750000000000e-02
-1.0429642267392900609190853344898641807958483695983886718750000000e-02
2.2044533757677559071552764180523809045553207397460937500000000000e-01
-1.7735445518231449102408703311084536835551261901855468750000000000e-01
7.9937266206361837217464483273943187668919563293457031250000000000e-02
1.3958130177814526140522843888902571052312850952148437500000000000e-01
4.2258290850706991398366696444099943619221448898315429687500000000e-03
1.9140773380388004330093787430655538628343492746353149414062500000e-03
2.2847525459634154820776075212052091956138610839843750000000000000e-01
-8.9609349565207274679323745658621191978454589843750000000000000000e-02
2.6834197101813683783433361895731650292873382568359375000000000000e-01
-6.2363537194251028594749186595436185598373413085937500000000000000e-03
3.9865115675495199631939158280147239565849304199218750000000000000e-01
-2.9650248364492997124597373215237894328311085700988769531250000000e-03
2.6363014385703531505811270108097232878208160400390625000000000000e-01
-2.4089547704977565256712068730848841369152069091796875000000000000e-01
1.2316706027299470505020906330173602327704429626464843750000000000e-01
-2.9014407766496455587379443841200554743409156799316406250000000000e-02
4.6923427195279992021892390141601936193183064460754394531250000000e-03
-4.5891792494441004460203892278968851314857602119445800781250000000e-03
1.2758831837335701808733290363306878134608268737792968750000000000e-01
-1.4650086508075829683228619160217931494116783142089843750000000000e-01
2.4362422119967998106193629581639470416121184825897216796875000000e-03
-1.2048769862615858750043429381548776291310787200927734375000000000e-01
-1.4389380278946695135289246536558493971824645996093750000000000000e-01
2.4802855132682113947772961637383559718728065490722656250000000000e-02
1.6216364257624599209961502310761716216802597045898437500000000000e-01
-6.2455686247738992356026699326321249827742576599121093750000000000e-03
-3.0654240344758004396807926639212382724508643150329589843750000000e-03
-7.9060681286540798740070101757737575098872184753417968750000000000e-02
-1.3238746655350475123213982442393898963928222656250000000000000000e-01
3.0379780780408597445907403766796051058918237686157226562500000000e-02
2.9611696057341108101468307722825556993484497070312500000000000000e-01
-3.6240556089170996266479729541742926812730729579925537109375000000e-03
-2.3034190274016999588901910556160146370530128479003906250000000000e-03
-1.2490685674319032538726048642274690791964530944824218750000000000e-01
-6.0569198221391694347826017974512069486081600189208984375000000000e-02
1.0237989900040281310289458360784919932484626770019531250000000000e-01
1.6106546199342300362822300030529731884598731994628906250000000000e-01
-1.4954956836590001852810294380446975992526859045028686523437500000e-03
-1.5715084486240000344325906667108938563615083694458007812500000000e-03
-9.4672092716996100736359665006602881476283073425292968750000000000e-02
1.6033044792656531152275078966340515762567520141601562500000000000e-01
-1.6985958213079997008998489604891801718622446060180664062500000000e-03
5.8365174924017410029719599151576403528451919555664062500000000000e-02
-1.1462821335129629030102904607701930217444896697998046875000000000e-01
-9.9048858218500016731278279280559218022972345352172851562500000000e-04
-4.1283527168292666331694817927200347185134887695312500000000000000e-01
1.2213337298339800585100789476200588978826999664306640625000000000e-01
-3.4402885540041155953971951930725481361150741577148437500000000000e-01
1.5539992431628915636743215600290568545460700988769531250000000000e-01
-7.5044552532913966907957004082163621205836534500122070312500000000e-03
1.6631274450880002314934191787187955924309790134429931640625000000e-03
-5.0514722941708445347330780350603163242340087890625000000000000000e-01
2.5730565808806654670704006093728821724653244018554687500000000000e-01
-4.2345861926196010777134759450746059883385896682739257812500000000e-03
-5.8237998414468999941462357128330040723085403442382812500000000000e-02
-5.2812524140914918202582839512615464627742767333984375000000000000e-02
-1.4483914916444001492329407554393583268392831087112426757812500000e-03
-1.2243559013715393790633356729813385754823684692382812500000000000e-01
2.6243813627405337962628095738182310014963150024414062500000000000e-01
-6.9199719163663981486012133359508879948407411575317382812500000000e-03
2.7807878643625244530213080906833056360483169555664062500000000000e-01
-1.8095573120735747307818996887363027781248092651367187500000000000e-01
6.0439017120310307984443198847657185979187488555908203125000000000e-02
-3.0568035632693918435265345578955020755529403686523437500000000000e-01
1.8714954923743343240261083337827585637569427490234375000000000000e-01
-3.1104054325973001099425729876202240120619535446166992187500000000e-03
3.7365086551108999193826498697035276563838124275207519531250000000e-03
-9.5305363673958115589002204615098889917135238647460937500000000000e-02
1.5867894510828192689011473248683614656329154968261718750000000000e-01
-1.5201867110091000969557262223474936035927385091781616210937500000e-03
-1.6282055812867721189540759496594546362757682800292968750000000000e-02
-1.2376504858465620095842041337164118885993957519531250000000000000e-01
-7.5343107244439969875232643303775148524437099695205688476562500000e-04
-7.6150322070996007139953576370317023247480392456054687500000000000e-02
1.0192139476069700387839134236855898052453994750976562500000000000e-02
-1.4774748522412999886255224879505476565100252628326416015625000000e-03
1.6757817029990271229245024642295902594923973083496093750000000000e-01
-1.8405960339564098049436324799899011850357055664062500000000000000e-01
2.7405609668290035335624921231101325247436761856079101562500000000e-04
-1.0554161732249191241184149703258299268782138824462890625000000000e-01
8.9935342116759936503811445618339348584413528442382812500000000000e-04
-2.6934382216411804911171401499814237467944622039794921875000000000e-02
3.7605033591629796752009440297115361317992210388183593750000000000e-02
-7.3885117866076793768925767835753504186868667602539062500000000000e-02
1.2169530004382204252388888221503293607383966445922851562500000000e-02
-1.9642365587250004113802070992989001751993782818317413330078125000e-04
5.2519185609060004167603086244753285427577793598175048828125000000e-04
-2.3731852603832499087888052713424258399754762649536132812500000000e-02
2.5963213945194397319626844478079874534159898757934570312500000000e-02
-2.1449442186229999941435298005387721786973997950553894042968750000e-04
2.3840486419662500205962629706846200861036777496337890625000000000e-02
-4.4660787484339700692537178383645368739962577819824218750000000000e-02
5.1551136861432991786990953642089152708649635314941406250000000000e-02
-2.8969051312304601453195829208198119886219501495361328125000000000e-02
6.6400708186870006574653579889400134561583399772644042968750000000e-04
-1.8309127077950003133557932422093017521547153592109680175781250000e-04
8.6176647722255111938594041021133307367563247680664062500000000000e-02
-4.0981492277228792620036301741492934525012969970703125000000000000e-01
1.0930562306925000609636455806139565538614988327026367187500000000e-03
-1.7021327998732185826646912119031185284256935119628906250000000000e-01
1.0145197203861996970708503340574679896235466003417968750000000000e-01
-7.6826608535581989573026717721404565963894128799438476562500000000e-03
9.9836601151135517806523012040997855365276336669921875000000000000e-02
-1.0229545525861455379512676699960138648748397827148437500000000000e-01
-2.5918690061120007797623721046420541824772953987121582031250000000e-03
-1.9763219079799335120561920575710246339440345764160156250000000000e-01
4.5466389645494226234845314138510730117559432983398437500000000000e-01
-3.6527766943212007337560276454269114765338599681854248046875000000e-03
5.9768353026734090394089804476607241667807102203369140625000000000e-02
-9.9082997783326090535105379331071162596344947814941406250000000000e-02
2.6934069790179648862249450758099555969238281250000000000000000000e-01
-3.2004536092666746593948801091755740344524383544921875000000000000e-01
9.1267487739039995439660479803478665417060256004333496093750000000e-04
-1.8527433673595999994582195213865816185716539621353149414062500000e-03
3.2637863033047199989855613466716022230684757232666015625000000000e-02
-3.3603235137956533051806218281853944063186645507812500000000000000e-01
2.0276993295064997709087339927691573393531143665313720703125000000e-03
6.2545750895101684396770735929749207571148872375488281250000000000e-02
1.3330057966440919670070286429108818992972373962402343750000000000e-01
-2.3908179414523764161337737732537789270281791687011718750000000000e-02
4.2792204109304001966029851189432520186528563499450683593750000000e-03
-8.8143547757358109429048909078119322657585144042968750000000000000e-02
5.0553184942871993295954169411743350792676210403442382812500000000e-03
-3.2492395677487923011383941229723859578371047973632812500000000000e-01
2.9274131435144351565114106961118523031473159790039062500000000000e-01
-5.9320343203523012015621063142134516965597867965698242187500000000e-03
-2.0805515658703737508217201934712647926062345504760742187500000000e-02
1.5348248749566001380983948365610558539628982543945312500000000000e-02
-9.1829446315099959481653701942605039221234619617462158203125000000e-04
-1.1100002856500749970347641237822244875133037567138671875000000000e-01
1.2622101811249361591471540577913401648402214050292968750000000000e-01
-2.0250280965591000228998019849768752465024590492248535156250000000e-03
7.4679069577888418374200796279183123260736465454101562500000000000e-02
-2.7085813727848950804855121532455086708068847656250000000000000000e-01
1.1215403894106997298441008581448841141536831855773925781250000000e-03
-9.7155004480516012066448894302084227092564105987548828125000000000e-03
4.4422581033308997100483850317687029018998146057128906250000000000e-02
-4.0779475857957096784911499298686976544559001922607421875000000000e-02
3.0773924662140002142876604729337941535050049424171447753906250000e-04
-1.2471489250459100173173965231399051845073699951171875000000000000e-02
1.7667767040089999808043230711263049670378677546977996826171875000e-04
-1.0841651861450201863035225358089519431814551353454589843750000000e-02
1.3991927138487200363292650706625863676890730857849121093750000000e-02
-1.2076332506474100891846745753355207853019237518310546875000000000e-02
1.5960781774394999787958226988848764449357986450195312500000000000e-02
8.2685943770000001613700024716280267966794781386852264404296875000e-06
1.3845659954289998979856668448462642118101939558982849121093750000e-04
-3.6369923663233288957385980211256537586450576782226562500000000000e-01
-8.3769346849231918900047233478289854247123003005981445312500000000e-04
-5.2198343902310417874446102359797805547714233398437500000000000000e-01
5.4417289435765359151275788462953642010688781738281250000000000000e-01
-6.8653645938041990559597138599201571196317672729492187500000000000e-03
-5.8838485247690065771397627258920692838728427886962890625000000000e-04
-1.4860741798607010610844270104280440136790275573730468750000000000e-01
3.9962624163402815646861654386157169938087463378906250000000000000e-01
-2.6013171696516006192734238311459193937480449676513671875000000000e-03
6.8580398229027714207539645485667278990149497985839843750000000000e-02
-6.6067671852618414796154411305906251072883605957031250000000000000e-02
8.6288677224340007768099702900599368149414658546447753906250000000e-04
-1.1503226251998189752501211557955684838816523551940917968750000000e-02
1.2722341776263704216098915367183508351445198059082031250000000000e-02
3.6298130674500012765593126573548943269997835159301757812500000000e-05
8.9003712640152998769593750694184564054012298583984375000000000000e-02
-2.2088414491690508412169435814575990661978721618652343750000000000e-02
1.5935382946036000077760785842428958858363330364227294921875000000e-03
-2.2331035481524898894667430226945725735276937484741210937500000000e-02
3.7338102090494901252881732034438755363225936889648437500000000000e-02
-1.3318427681048830568677487917739199474453926086425781250000000000e-01
-1.8633349891330995562466199544360279105603694915771484375000000000e-02
-3.3145239100520004381020267025803605065448209643363952636718750000e-04
1.2831874950873999822326121389437503239605575799942016601562500000e-03
-4.4770569248222441549600603138969745486974716186523437500000000000e-01
9.8322301556798608057619048850028775632381439208984375000000000000e-02
-1.9244222032629107466128459691390162333846092224121093750000000000e-01
3.2511944613518389823880738731531891971826553344726562500000000000e-01
