%%MatrixMarket matrix coordinate real general
351 351 1404
1 3  -2.29711765399306759583e-02
1 4   5.31081182523357800407e-02
1 2   5.49186715987079951407e-02
1 1   2.89994346309091211022e-02
2 1   5.00209516899320486873e-04
2 4   5.33829614217134068577e-02
2 3   2.76482142885230916529e-02
2 2  -7.55684162763449723127e-03
3 3   1.16896722082000387166e-02
3 4   5.33833605895229074134e-02
3 2   4.85271657117934337999e-03
3 1   3.11589116940665621092e-03
4 3  -1.53264616671101236434e-02
4 4   5.33693276668431651477e-02
4 1  -4.78288326490218344833e-03
4 2  -7.70442514094232255850e-02
5 2  -3.17115745323118536358e-02
5 4   5.33683751696402558506e-02
5 3  -1.02100503231722216507e-02
5 1   7.18934773154684177848e-03
6 1   1.93715188903816081835e-03
6 4   5.33819712845360339060e-02
6 3   7.26906197854735314223e-02
6 2   1.30227394743548797844e-03
7 3   1.01847145381367881756e-01
7 4   5.33804824040793185480e-02
7 2  -6.95108299679248961556e-03
7 1  -5.71452108217426583969e-03
8 1  -2.05609785793188380905e-05
8 4   5.33805156898989954795e-02
8 3   4.96805784566607981298e-04
8 2   2.62261967082377518787e-04
9 1  -8.83417022335319739555e-04
9 4   5.33823857833900516923e-02
9 3   3.49667871217767579906e-03
9 2  -3.83687173440039417521e-03
10 3  -1.39129694828551021130e-02
10 4   5.33876499290330958081e-02
10 2   2.03951688827279592822e-03
10 1   2.00171273357863371140e-03
11 3   1.79526171549657630189e-02
11 4   5.33838226159660950154e-02
11 2  -3.71114812605607552465e-02
11 1  -1.54093698609214231447e-03
12 4   5.33831490559334709278e-02
12 2   4.08962023127706995190e-03
12 3  -4.25150691161962825809e-03
12 1   1.91766053522027853789e-03
13 4   5.33861899081258112210e-02
13 3  -1.65744685098433326698e-02
13 2  -2.12325366401117234883e-04
13 1  -2.07214059413681102317e-03
14 4   5.33827542209857480726e-02
14 3  -2.24111419404242701026e-01
14 2  -3.12683070354923290865e-03
14 1   2.20279464304694652665e-03
15 2  -1.01643694087167515971e-01
15 4   5.33613969137118338004e-02
15 3  -1.52142085542380112867e-02
15 1  -4.20652282482849304568e-02
16 4   5.33821908304437098280e-02
16 3   1.56215954070659645420e-02
16 1  -8.99964672048247926739e-03
16 2  -3.05314237758444722431e-03
17 4   5.33670493366097259402e-02
17 3  -1.45018540741140254668e-02
17 1   6.36198746851294044680e-02
17 2  -5.95779671692291887264e-02
18 2  -2.09314822686957648090e-03
18 4   5.33151880424618945797e-02
18 3  -1.05663489273121555950e-02
18 1  -3.44272600171378700094e-04
19 2  -5.29442199448343295276e-02
19 4   5.33829292645385672378e-02
19 3   1.93883066628092667893e-02
19 1   4.42508048055114538988e-03
20 4   5.33627386985129972818e-02
20 3  -1.29823323136286482987e-02
20 2  -2.82116120891198127185e-02
20 1  -1.94184376872533787095e-01
21 1  -5.10855911234220274458e-03
21 4   5.33813227828822609022e-02
21 3   1.41207266686522274479e-02
21 2   1.60251420464905028861e-03
22 3   2.19598562545095937759e-02
22 4   5.33833199306371630755e-02
22 2   1.80134001688774469073e-03
22 1   2.22968873801551660703e-04
23 4   5.33779024101675991787e-02
23 2   7.09747776610018376447e-03
23 3   3.90044549222585273940e-02
23 1  -1.24790473414613611956e-04
24 4   5.33835456635789878943e-02
24 3   2.76250152080929275988e-02
24 2  -8.43658329267043052835e-03
24 1   3.95789126949898308234e-04
25 4   5.33764506725769652395e-02
25 3   1.11042698397552548617e-02
25 2  -7.59808175862650928695e-03
25 1  -6.35302558404595915653e-03
26 2  -5.23365090660419460256e-02
26 4   5.33700687124164241393e-02
26 3  -1.37487296133631826250e-02
26 1   8.18689150061845949402e-02
27 4   5.33827863134767807707e-02
27 3  -1.21385249419465337216e-04
27 1  -1.19235351772735437975e-02
27 2   9.50264140704107189428e-03
28 4   5.33618959965590708427e-02
28 3  -1.46648968416795682373e-02
28 1   9.86233816496973614285e-02
28 2  -1.80709133335163960044e-02
29 2  -1.04098635891107779705e-01
29 4   5.33816099988753678396e-02
29 3   1.80348727889423528226e-02
29 1  -4.88170189118984371862e-03
30 2  -2.46874812570565150150e-04
30 4   5.33831901342950998490e-02
30 3   1.65206232624628447658e-02
30 1  -2.79992975753283685272e-03
31 4   5.33634797621442558135e-02
31 3  -1.61167703438878755218e-02
31 2   1.12129138884327711478e-01
31 1   2.93442467498384873537e-02
32 1   2.14570825490765261512e-02
32 4   5.33670880080406723200e-02
32 3  -1.59218990316143255148e-02
32 2  -3.12325113130432936714e-02
33 4   5.33821129241180483693e-02
33 2  -1.11851093050251387644e-03
33 3   9.60103359823599039613e-02
33 1  -3.94806000954498696048e-03
34 3  -1.30363197213366234506e-02
34 4   5.33685290376032864246e-02
34 2   2.40738004815679897119e-02
34 1   2.21564078678712118864e-02
35 1  -3.18960707343365944613e-03
35 4   5.33824675102184120767e-02
35 3   1.44250858724880599154e-02
35 2   3.11806359995277018737e-02
36 3  -1.62769053472919880687e-02
36 4   5.33624876265607131498e-02
36 2   1.15996058194935525165e-01
36 1  -7.56122644640389862669e-02
37 3  -1.60048757065027850988e-02
37 4   5.33669216910661534103e-02
37 1   2.88454501237544597148e-02
37 2  -1.11525730045284390823e-01
38 2  -2.68917612862550579889e-02
38 4   5.33671898597838506584e-02
38 3  -1.42871451103968299251e-02
38 1  -2.06703164969098213133e-01
39 1  -4.67523109708194422457e-03
39 4   5.33827425491436510785e-02
39 3   1.66786744040978880677e-02
39 2  -6.02766588221541506354e-03
40 3   1.57998920599656186847e-02
40 4   5.33829212196254843104e-02
40 2  -6.95371320375225560051e-02
40 1   1.01712931211619030808e-02
41 1  -1.71204188369199010976e-03
41 4   5.33819622903073040532e-02
41 3   2.01782700225112826553e-02
41 2   5.60066173953041156891e-03
42 1  -8.49842026468332623068e-02
42 4   5.33675870257132659025e-02
42 3  -1.57113855209587635620e-02
42 2  -2.24460697068871875906e-03
43 3   3.72372840657855027485e-03
43 4   5.33833231143156297649e-02
43 2  -2.09954084779489930090e-02
43 1  -2.24046017245790700378e-03
44 4   5.33814120523667945406e-02
44 3   1.75161502223774370735e-02
44 2  -7.98785037047983481617e-02
44 1   1.21511867979448451998e-02
45 2   2.83861035799390956473e-04
45 4   5.33824940087614871476e-02
45 3   3.96791545823819546274e-03
45 1  -3.64303807154384498568e-03
46 4   5.33675238251859473948e-02
46 3  -2.18163611740895338476e-02
46 2  -1.43142100461346993140e-02
46 1  -9.33074900803180923292e-02
47 4   5.33818518511114670222e-02
47 3   5.64142364912373767138e-02
47 2   1.75005613894042184875e-02
47 1   3.15137612776511489773e-03
48 2   2.59063228382614297446e-03
48 4   5.33827852464052524106e-02
48 3   1.01146570198320934209e-01
48 1   2.93966317149777596127e-03
49 4   5.33811513490719813380e-02
49 3   6.22407103011567777728e-02
49 1  -2.61918736145630491694e-04
49 2  -2.95068295942786705879e-03
50 4   5.33617676140021521269e-02
50 3  -8.06824983760438992075e-03
50 1  -1.45759113967055320416e-01
50 2   4.00080856706543711021e-02
51 2  -4.31116255521289768599e-03
51 4   5.33836647441755310362e-02
51 3   4.46749220986360044694e-03
51 1  -8.81208721078913063962e-03
52 2  -2.87832900612511885866e-03
52 4   5.33781047480465856148e-02
52 3   4.66058861526060935754e-02
52 1   4.24536872818498649956e-03
53 4   5.33846098631796175948e-02
53 3   7.94066827321139416529e-03
53 2   3.31991822700093176801e-03
53 1   4.38351822513894252148e-04
54 1  -8.32426162669963054519e-02
54 4   5.33624440020658841188e-02
54 3  -1.61466875137556871433e-02
54 2  -6.49575264246762817955e-02
55 4   5.33781106167039026689e-02
55 2   4.81252331362821191701e-03
55 3   3.88663015035856651558e-02
55 1  -5.26812207562322998289e-03
56 3   1.59872275527103840931e-02
56 4   5.33821924451504392639e-02
56 2  -1.22568122523670861718e-02
56 1  -7.02964664701077098646e-04
57 1   2.46874027395413454811e-02
57 4   5.33688774357294545836e-02
57 3  -1.30038927370920449206e-02
57 2  -1.02089176630048173583e-02
58 3  -5.21119151309987135856e-02
58 4   5.33776818522153709279e-02
58 2  -3.25689690190533688227e-03
58 1   5.65267528004466911218e-03
59 3  -7.90076397929085662286e-03
59 4   5.33687682330195589664e-02
59 1  -1.42219447987591163934e-02
59 2  -3.14922582173960503502e-03
60 2  -1.01339115246746897664e-02
60 4   5.33781626150453894497e-02
60 3   4.09763220424266202957e-02
60 1   5.67707966474098341819e-03
61 1   4.18468141390072705110e-03
61 4   5.33857162228430284778e-02
61 3   5.55171944474274689507e-02
61 2  -2.18583214780344528430e-04
62 3   1.24340927586700563529e-02
62 4   5.33889804335026807447e-02
62 2   4.94164280101632596466e-04
62 1  -9.11034266878645287296e-04
63 1  -7.78164727831129592744e-03
63 4   5.33824015461508635805e-02
63 3  -3.11137391446114977556e-02
63 2  -6.56580421324164630048e-03
64 1  -5.69721091857483194487e-03
64 4   5.33811815724304153385e-02
64 3  -2.85764046163738396830e-04
64 2   1.55053267460680561235e-03
65 3  -1.63190051095420118887e-02
65 4   5.33851600130976419734e-02
65 2   5.54775710400997007325e-04
65 1   2.66213296939101298766e-04
66 4   5.33802108294804122934e-02
66 3   1.75460893201566207888e-02
66 1  -3.40552857044827119934e-03
66 2  -1.02426057656925285910e-02
67 2   6.83968388470639759857e-03
67 4   5.33795968950216415116e-02
67 3  -1.38010560473265042614e-01
67 1   3.17874048487509558089e-03
68 4   5.33808638168065743845e-02
68 3   2.78111694395540634539e-02
68 2   3.00606315159408291060e-02
68 1  -5.53290952595378304757e-03
69 4   5.33824455131397881957e-02
69 3   2.18741015109677958139e-02
69 1  -8.36332627754365030837e-03
69 2  -2.32457880756928476906e-02
70 2   8.31135847747881920545e-05
70 4   5.33914674733372215942e-02
70 3  -2.00054268192998187248e-02
70 1   6.63534209935786548767e-05
71 4   5.33691811096873303111e-02
71 3  -1.11315586807796580715e-02
71 2   1.02108623676159679383e-01
71 1  -4.72948221989933220710e-02
72 4   5.33680339170841261387e-02
72 3  -1.99751367807639162999e-02
72 1  -6.47903551888340343418e-03
72 2   1.89253699054719587425e-02
73 2  -3.52709486809338291710e-03
73 4   5.33773147403051179127e-02
73 3   6.96013352885492403432e-02
73 1   1.95768258935477730553e-03
74 4   5.33846032652460986134e-02
74 2  -9.25742969735003575112e-04
74 3  -2.07431975487618672216e-02
74 1   2.37261400675989895040e-03
75 3   5.13741265641577682377e-02
75 4   5.33831650321256526159e-02
75 2   1.51887773194528570564e-03
75 1   1.66071511492238118105e-03
76 1  -3.61419949202469354440e-05
76 4   5.33890772654775011552e-02
76 3  -9.41855975669231570979e-02
76 2  -1.68462206611459143490e-03
77 3  -2.17276640882926377896e-02
77 4   5.33850074933243101682e-02
77 2  -3.11002786533425695792e-03
77 1   1.28830866089044778107e-03
78 3  -1.72956494895101127451e-02
78 4   5.33676100865024816144e-02
78 2   4.85806481180969737532e-02
78 1   1.18050637827650822809e-01
79 2  -6.26386488001066076003e-03
79 4   5.33846560493511299028e-02
79 3  -6.50195318354244711223e-02
79 1  -7.91943363628164827446e-04
80 4   5.33840908263765456798e-02
80 2   1.29132382997391797173e-03
80 3   5.24868935810659381636e-03
80 1   2.06915719867421267746e-04
81 4   5.33809536594177722058e-02
81 3   4.17018099359448175811e-03
81 2   2.36887636627679904963e-03
81 1   1.00826977787319468222e-03
82 1   5.59122887110500622378e-04
82 4   5.33824074850450178142e-02
82 3   1.86802866591986652112e-02
82 2  -2.24753877786181804899e-01
83 1  -1.06003222792894064019e-01
83 4   5.33621633254414626246e-02
83 3  -2.20736773010027434450e-02
83 2  -2.26576168882662489640e-03
84 3   4.73269644188545196561e-02
84 4   5.33777452524136705736e-02
84 2  -3.44289837119692260052e-05
84 1   9.36943732662286936710e-04
85 1  -1.43812530202674254166e-03
85 4   5.33779574899864855952e-02
85 3   3.09992195649853134742e-02
85 2   1.65974649133339251239e-03
86 2  -2.81117454611955284310e-04
86 4   5.33854169783003276728e-02
86 3   7.78124043045573393629e-02
86 1  -5.03068123702769560285e-03
87 3  -1.23545400208171455431e-02
87 4   5.33689422302338969950e-02
87 1  -7.45323987434753365555e-02
87 2  -2.44659488726993489330e-03
88 1   2.76092716848802977730e-03
88 3   1.78610629382851479607e-02
88 2  -5.73123622640157939778e-02
88 4   5.33820244255214376716e-02
89 3  -1.62436323129012960553e-02
89 4   5.33668789027713919015e-02
89 2   3.65368400356393674411e-02
89 1   1.92060202004223148919e-02
90 1   9.35731261698466952603e-03
90 4   5.33468341648157332036e-02
90 3  -1.21807022534232405747e-02
90 2  -5.49355229201729106103e-03
91 3  -1.42986540946245330869e-02
91 4   5.33630664131447204901e-02
91 2   2.51232387169148044248e-02
91 1   5.79381265766098982328e-02
92 3  -1.66081307209455797391e-02
92 4   5.33675817009413369640e-02
92 1   1.06703118567472637901e-01
92 2  -3.52366409646414913137e-02
93 2  -1.35595052097890246025e-03
93 4   5.33798556695163559094e-02
93 3   6.70042483134264486161e-03
93 1  -1.55932380465386355092e-03
94 1   3.99155947219092324674e-02
94 4   5.33686033714700913677e-02
94 3  -1.30820028879834789753e-02
94 2   3.29464518649319991483e-03
95 3   1.50545903896445211478e-02
95 4   5.33809784955951577290e-02
95 2   1.19244038581847150438e-01
95 1   1.61078277160393965213e-03
96 1  -5.48725992513830317793e-03
96 4   5.33815608908255953557e-02
96 3   1.49770123599812284704e-02
96 2  -1.26344118757097750860e-01
97 1   2.68621731866015497903e-03
97 4   5.33826214921840694339e-02
97 3   3.64898171594656714825e-03
97 2   2.63109509248762819464e-03
98 3   1.98037593355864134648e-03
98 4   5.33823501119294399619e-02
98 2  -1.14671594780050255247e-03
98 1  -1.37614082501303670869e-03
99 3  -2.21380921438794585343e-02
99 4   5.33613675100379700189e-02
99 2  -4.86082011469763167200e-02
99 1  -2.39232276430931083133e-02
100 4   5.33842876934918289522e-02
100 2  -3.63019890775453468821e-04
100 3   3.94061888344800475420e-03
100 1   1.42663219006533754409e-03
101 4   5.33792864417218029804e-02
101 3   2.30611672957752145141e-01
101 2   2.07228246941536502906e-04
101 1   1.52978328277635490344e-03
102 4   5.33794440701150577078e-02
102 3   3.99707029273560776605e-02
102 2   2.53466564126659426107e-03
102 1  -1.39060016272779833277e-03
103 2   9.11209351827038313565e-03
103 4   5.33837164948326517444e-02
103 3  -1.79656036581861099088e-02
103 1   1.53499337563289903891e-03
104 4   5.33692821392103833311e-02
104 3  -2.57233056833615324199e-02
104 1  -1.99950080520903301917e-02
104 2  -9.36099840355086032506e-02
105 4   5.33815665890747248490e-02
105 3  -2.51222308489200451057e-03
105 1   6.63546756454097899636e-03
105 2  -6.37719680321015367636e-03
106 2   7.93993240593644268588e-03
106 4   5.33824213829191956959e-02
106 3   9.62818162615010700311e-03
106 1  -4.92320378036944887590e-03
107 2  -2.85796289425729443251e-03
107 4   5.33820860460676518966e-02
107 3   1.80619671112952004388e-02
107 1   8.11855155070643520754e-03
108 4   5.33828853517856610766e-02
108 3   6.91580587926045537231e-04
108 2  -7.32234833017326308680e-03
108 1   1.32676068206204791607e-04
109 1   4.46653155471711787311e-03
109 4   5.33728188566398031867e-02
109 3   1.14724196595130084608e-01
109 2   2.20772283304162403317e-04
110 3   4.36179655136205157717e-02
110 4   5.33752564030997231348e-02
110 2  -3.51288269373639921306e-03
110 1  -2.01411425391704711901e-03
111 4   5.33819834270681595201e-02
111 2  -6.46721164917487233159e-03
111 3   1.79516628809535533362e-02
111 1   2.62924912012700790279e-03
112 4   5.33896629936686170637e-02
112 3   1.80686471332020121006e-02
112 2   4.11785501073284963131e-03
112 1   9.77748806165518310682e-04
113 4   5.33814092558703850999e-02
113 3   1.27613051988927951597e-02
113 2   5.43858594551602791967e-02
113 1   1.36510525395905531199e-03
114 2  -2.66883481128601489363e-02
114 4   5.33677623224608904673e-02
114 3  -1.44300394645929860177e-02
114 1   1.92616175579955001274e-01
115 4   5.33678408032829051932e-02
115 3  -2.02077598386153634014e-02
115 1   5.73792531572682937280e-02
115 2  -2.40734054726058105400e-01
116 4   5.33631119259135866528e-02
116 3  -1.15652334905870929349e-02
116 1  -1.68678449448350850637e-02
116 2  -2.10078199434763877862e-02
117 2  -2.99520573123430956450e-03
117 4   5.33820149402860696930e-02
117 3   9.14956387970324025449e-03
117 1  -1.44242282648756226134e-03
118 2  -3.30733664096917196612e-03
118 4   5.33786225863378677170e-02
118 3   2.55045596039013659773e-02
118 1   3.02502825185588285553e-03
119 4   5.33820883124024592181e-02
119 3   1.88894884798194613584e-02
119 2   2.49306296817184943129e-03
119 1   1.58076213137304001644e-02
120 1   2.13752018493793272125e-01
120 4   5.33615302035275115844e-02
120 3  -1.55689870969927396382e-02
120 2  -2.48883734596523666094e-02
121 4   5.33678832592108035038e-02
121 2  -8.13793237649674677803e-02
121 3  -1.70730551940188358950e-02
121 1  -2.14829733579956744238e-01
122 3  -1.16526899813556954200e-02
122 4   5.33620781360880647171e-02
122 2  -9.85628243590715505396e-03
122 1  -6.71138366853445411664e-02
123 1   1.20600346351517045268e-03
123 4   5.33844712806639740132e-02
123 3  -1.90680103998421435901e-03
123 2   1.30083494811095417426e-02
124 3   1.44280390266389468325e-03
124 4   5.33864394166405631381e-02
124 2  -6.30913965294066167444e-03
124 1  -6.30181880828464260555e-04
125 3  -1.49251156471527091085e-02
125 4   5.33856022815782926827e-02
125 1  -1.79700149842405474364e-03
125 2   1.75216277624348662316e-03
126 2   2.30768330717233058347e-03
126 4   5.33851804931418025268e-02
126 3  -2.97952119599915243864e-01
126 1   1.60331624256900695654e-04
127 1  -3.84754352151126790757e-03
127 4   5.33827148859970304628e-02
127 3   8.33078326524470773318e-03
127 2   2.60818243238901880873e-03
128 3  -1.45184265502595350600e-02
128 4   5.33673861882294001124e-02
128 2  -3.82392119521062431864e-02
128 1   2.99548882183627816767e-02
129 1  -7.69333814078849570484e-02
129 4   5.33663214106996075525e-02
129 3  -2.34302449622475934821e-02
129 2   1.04372717339650256108e-01
130 1  -5.07365156221929562708e-04
130 4   5.33875175669395185540e-02
130 3   1.04545508440375741616e-02
130 2   2.80809923570649131591e-03
131 3   1.79321119345051439853e-02
131 4   5.33843054482298351449e-02
131 2  -1.17709039088036452811e-03
131 1   5.37117002033882674078e-03
132 4   5.33820290938219199628e-02
132 3   3.64341455290507609116e-03
132 2  -1.00837068341197919064e-02
132 1   4.16688619905742144156e-03
133 2   1.57307057663986551695e-05
133 4   5.33822475248738603781e-02
133 3  -3.49479384844975163316e-02
133 1  -3.74131481643448201083e-04
134 4   5.33824218143474013565e-02
134 3  -1.60302623349947064371e-03
134 2  -5.06997144683126853976e-03
134 1   1.60772259088672888304e-03
135 4   5.33830512343483956639e-02
135 3   4.54466615468940814127e-03
135 2   5.57523375953455739562e-03
135 1  -2.38980515693535669128e-03
136 2  -2.09641426823736765073e-03
136 4   5.33920384721185345422e-02
136 3  -9.59256290407255532426e-03
136 1  -3.89671339364236165356e-04
137 4   5.33817575527692281256e-02
137 3   1.71763796309953239994e-02
137 1   1.74604976202415032929e-03
137 2   3.84263249832833622688e-02
138 4   5.33859587570040539095e-02
138 3  -3.89638517333706696152e-03
138 1  -1.54439676174181824038e-03
138 2  -5.77665468433723790914e-03
139 2   2.23173276102169651502e-02
139 4   5.33638534295213101677e-02
139 3  -1.29507790351846667487e-02
139 1  -1.98527389448640428915e-01
140 2  -1.22530178714796936928e-02
140 4   5.33631085217302972290e-02
140 3  -2.01899595450551506970e-02
140 1  -1.56128239943137646362e-02
141 4   5.33607136216676034013e-02
141 3  -1.11244253847409772101e-02
141 2   6.52813491928546651977e-02
141 1  -8.55429753821735673613e-03
142 1  -3.90084176428309205298e-03
142 4   5.33835000188869548965e-02
142 3  -7.03794476480523994305e-03
142 2  -5.53728030032500390806e-03
143 4   5.33685047886992003363e-02
143 2   9.42944342740071189679e-02
143 3  -1.47343490474217131414e-02
143 1  -3.38768061180684740274e-02
144 3   1.90424327598605717948e-02
144 4   5.33824427855783961716e-02
144 2  -3.32983597356595745209e-02
144 1  -6.06978923123863665923e-03
145 1  -1.01840900894015909200e-04
145 4   5.33890689935182308212e-02
145 3   1.07147221033191374084e-02
145 2  -3.86107213148738403000e-03
146 3  -1.61485773289174981693e-02
146 4   5.33679389906142470634e-02
146 2  -6.21775596143553984513e-03
146 1   1.00729770977985161329e-02
147 3  -9.79674292559438303352e-03
147 4   5.33616942927371273875e-02
147 1   3.00443458154211265332e-02
147 2  -8.64672444911691040481e-02
148 2  -3.09057479085522073328e-03
148 4   5.33856765396736668294e-02
148 3  -1.43182153204736324625e-02
148 1  -6.52316429692065898223e-04
149 1  -4.00061465339051963372e-04
149 4   5.33831777096060583476e-02
149 3   1.56783343055956966849e-02
149 2   1.85144196887932844034e-03
150 3  -3.03751134451063671549e-03
150 4   5.33820891437633560095e-02
150 2   4.38630592872962885714e-03
150 1   3.12463260509931409648e-04
151 1   5.23224784969953619213e-03
151 4   5.33826559787895921216e-02
151 3   4.28694272686762269803e-03
151 2  -1.22733044018675137299e-02
152 1  -7.27118911746346685554e-03
152 4   5.33738546926780937918e-02
152 3   8.82786140758766435521e-02
152 2   1.29714854437685297821e-03
153 3   1.55390567053540745029e-02
153 4   5.33825805927752097824e-02
153 2   5.49974527197931418142e-04
153 1  -3.06796520220362555972e-03
154 4   5.33815973113592884269e-02
154 3   9.78696234151446575744e-02
154 1  -2.84806724699058653669e-04
154 2  -7.10364349844424050606e-04
155 2  -2.02545496419333816152e-02
155 4   5.33680769961286383118e-02
155 3  -1.33010857890483169541e-02
155 1   1.37005142022057491147e-01
156 4   5.33823125382195604050e-02
156 3   1.17146785398723144583e-02
156 2  -2.87563523211649615940e-02
156 1   8.38322390819516531646e-03
157 4   5.33829034763508708528e-02
157 3   1.07970819426099953059e-02
157 1  -3.81970829361320471373e-03
157 2   7.46542208254276501433e-02
158 2  -1.57626770501370805366e-01
158 4   5.33620272397631115191e-02
158 3  -1.35093245772724673132e-02
158 1  -8.93467274691062685044e-02
159 4   5.33627937436274984995e-02
159 3  -1.20569468579964783617e-02
159 2  -3.75022121502893643341e-02
159 1  -9.69096071543394492476e-03
160 4   5.33692227641977753883e-02
160 3  -1.15832282382762972311e-02
160 1   5.55494712154530959070e-02
160 2  -1.27009446255786154212e-02
161 2   5.82807934822432774369e-02
161 4   5.33667210245784215394e-02
161 3  -1.73535257392110689456e-02
161 1  -9.08891205858291251207e-02
162 4   5.33795944212473033597e-02
162 2  -7.53592551437620890298e-03
162 3   2.79872926810541856890e-02
162 1  -2.52121364881895213689e-03
163 3   3.28855236762469888001e-02
163 4   5.33862389557288735675e-02
163 2  -2.23315095524948860339e-03
163 1  -3.73697014566507163327e-03
164 1  -9.56988184729941349094e-03
164 4   5.33675853181330220321e-02
164 3   3.08530143157270293763e-02
164 2   8.18984148411052576000e-03
165 3   1.41994652965264193945e-02
165 4   5.33827454728484016022e-02
165 2   2.61051592881610637631e-02
165 1  -1.12494490256176784583e-03
166 3   3.98046219192640993167e-01
166 4   5.33812127186259893774e-02
166 2  -1.63188689161105206053e-03
166 1  -2.64633088440435803104e-03
167 2  -3.86662873363299549115e-03
167 4   5.33824684728797863031e-02
167 3   4.33384995682114734783e-02
167 1  -8.26022989368628730855e-04
168 4   5.33930726402761027249e-02
168 2   3.65853710766889377460e-05
168 3   4.23024371559664082165e-03
168 1   3.05571793714348930566e-05
169 4   5.33802628806012424700e-02
169 3  -1.40459118031729490554e-03
169 2  -6.13062461419963469766e-02
169 1   2.22941587318151786690e-04
170 1  -1.24020715054437308950e-02
170 4   5.33817676948542818582e-02
170 3   1.30453975548962264330e-02
170 2   8.20289409826742560439e-02
171 1   1.24904961742146189884e-04
171 4   5.33829956375461087137e-02
171 3   2.74345555578429552146e-02
171 2   8.33503672830941677585e-03
172 3  -1.38337249488504551720e-02
172 4   5.33687783492429318466e-02
172 2   7.74243039601093391289e-02
172 1   8.68568941716784184703e-03
173 1   1.12849283757478430559e-03
173 4   5.33849144602559361195e-02
173 3  -4.58197639786194557687e-02
173 2  -5.51300915423470327265e-03
174 2  -4.79373178876315187563e-03
174 4   5.33853738164053528981e-02
174 3  -9.86909808074314803816e-02
174 1   2.14294459426281900041e-03
175 3  -2.52224001692633835459e-02
175 4   5.33798974501240655610e-02
175 1   2.45025126736511970546e-04
175 2  -1.61066097689376356000e-04
176 1  -1.08347832014550490842e-01
176 3  -1.30750579438936691268e-02
176 2   4.68444460171414597816e-02
176 4   5.33627266779180264855e-02
177 3   9.00688158971861378699e-03
177 4   5.33829791839270650922e-02
177 2   1.42884877045390046302e-01
177 1   1.51854858046847739778e-02
178 1  -8.53079500987937999756e-02
178 4   5.33693016030266989547e-02
178 3  -1.44048108359287191371e-02
178 2  -7.60511678848216354787e-02
179 3  -1.22293587492195831440e-02
179 4   5.33640019103113830146e-02
179 2  -2.17028723853271085509e-02
179 1   1.11343859295356145678e-01
180 3   1.08879815658222741520e-02
180 4   5.33831944525217788611e-02
180 1  -8.54120450036814334374e-04
180 2  -4.89506850537863111988e-03
181 2  -1.61780726232746141502e-02
181 4   5.33829380015518675795e-02
181 3   9.96893308802494423904e-04
181 1   6.86418679897908817072e-03
182 1   4.98227319637121884854e-02
182 4   5.33677227599801615177e-02
182 3  -1.79501069445610651754e-02
182 2   2.10077200724639520657e-02
183 3   7.55325313017478350286e-03
183 4   5.33821110981969257359e-02
183 2  -8.94461198591282174997e-03
183 1   5.39963062653325224366e-03
184 1  -1.20142971104840519283e-04
184 4   5.33880095266385315544e-02
184 3  -7.02006061104406414719e-03
184 2   2.86602605506209402383e-03
185 1  -4.99941027772292812675e-03
185 4   5.33793760008105383497e-02
185 3  -5.67550518642000981391e-04
185 2  -9.18574930687104658326e-04
186 3  -1.27915167374074625201e-02
186 4   5.33682864203620654919e-02
186 2   3.92299951151106884861e-02
186 1   8.47044357981947687586e-02
187 3   1.92678304443963319126e-02
187 4   5.33826648999504854709e-02
187 2   4.33656905287128011106e-02
187 1   1.85343962056503785280e-03
188 4   5.33821503044836706553e-02
188 2  -7.48916365644861636852e-02
188 3   1.59044584391634415133e-02
188 1   1.02942839888091105388e-02
189 4   5.33680345389870580686e-02
189 3  -8.89786580768304503908e-03
189 2  -1.99893959116704510171e-02
189 1   5.32771179212120360447e-02
190 4   5.33785585612028198876e-02
190 3   4.48223785253042995846e-03
190 2  -2.08230537068084323171e-03
190 1  -5.85416497032070537497e-05
191 2   2.93284303439141427750e-04
191 4   5.33843088120475872671e-02
191 3  -1.83903272542758761121e-02
191 1  -2.32670132446203409282e-03
192 4   5.33672606090523846123e-02
192 3  -1.35892744738098335266e-02
192 1  -1.94563636192652232582e-02
192 2  -6.03026953461870407480e-02
193 4   5.33813312677290791042e-02
193 3   2.07708809559013808654e-02
193 1  -1.46570796608503392360e-03
193 2  -4.92816507448979104766e-03
194 2   3.82675418033088590719e-02
194 4   5.33833849686087685837e-02
194 3   3.23773434260659631612e-02
194 1  -1.11408678064718992887e-03
195 2  -2.85011765689486384900e-01
195 4   5.33827589625583062705e-02
195 3   1.76158420048021062410e-02
195 1   1.72837636714619582480e-03
196 4   5.33847482288646729698e-02
196 3  -3.84992058761602140571e-01
196 2   4.44519599310291575051e-03
196 1   4.48108611922274149841e-04
197 1  -2.53158091838615734170e-02
197 4   5.33686616086341686360e-02
197 3  -1.85531286096239263206e-02
197 2  -3.27526812180214954573e-02
198 3   2.34670041535169349167e-02
198 4   5.33832480171086004583e-02
198 2  -2.87525823104278974163e-02
198 1  -6.89628249170192038874e-04
199 4   5.33848817398800828959e-02
199 2   2.12395287564100836077e-05
199 3   5.64225133423778904551e-02
199 1  -8.18830470765419910981e-04
200 4   5.33819402737473677756e-02
200 3   1.88728789478819283798e-02
200 2   2.36011943604241651584e-02
200 1  -5.09500630997980659409e-03
201 4   5.33709545139093716193e-02
201 3   4.98084567728510133056e-02
201 2  -4.96581843109184569579e-03
201 1  -4.16197148493675512636e-04
202 2  -1.24533156826160840147e-01
202 4   5.33809589768975897850e-02
202 3   1.77395380188203194427e-02
202 1   2.19245462570946897732e-03
203 4   5.33631788453802352601e-02
203 3  -1.42607640974364013875e-02
203 1   2.18005414469212149831e-02
203 2   4.59662891615473523377e-02
204 4   5.33393429989125894553e-02
204 3  -2.42539140980724321484e-01
204 1   1.59782689895045606522e-03
204 2  -3.19088015479240772951e-03
205 2  -4.14128546364087458259e-03
205 4   5.33852019807385877459e-02
205 3   1.40079442058159923251e-02
205 1  -1.66470450220835273526e-04
206 2   1.05614236412682523797e-02
206 4   5.33831376565045492844e-02
206 3   1.10988889014473693373e-02
206 1   3.03400686422375517534e-03
207 4   5.33829890758069636192e-02
207 3   6.09315615034436170588e-03
207 2   3.10910278874673290384e-02
207 1  -2.40616528688731900814e-04
208 1  -3.64635248017340651838e-03
208 4   5.33832715099111579371e-02
208 3  -5.35442233635442382811e-02
208 2   6.98253308924574531136e-03
209 4   5.33934291091566065601e-02
209 2  -7.58722754808856996236e-04
209 3  -2.39400548485502922061e-03
209 1   2.28608374586298330675e-04
210 3   1.70238457534922262016e-02
210 4   5.33823907866166832981e-02
210 2   7.47529530829647240880e-03
210 1   7.20584022624426879383e-03
211 1   7.33889838454101876841e-03
211 4   5.33822015506231831172e-02
211 3   1.79849206991831052360e-02
211 2   3.33352924863126454103e-02
212 3  -7.33376219941299714589e-03
212 4   5.33777320666386639880e-02
212 2  -8.62605579334609052188e-04
212 1   2.07633232047115413171e-03
213 3  -4.20237225487870083573e-03
213 4   5.33870588695012845970e-02
213 1  -1.53693726893445168670e-03
213 2   1.85778823907000898916e-03
214 2   4.16542003267442381698e-02
214 4   5.33679906645643034602e-02
214 3  -1.51177867797128683003e-02
214 1   4.01296198655157285856e-03
215 1   5.54023984330745660615e-03
215 4   5.33829584108106505735e-02
215 3   1.67901112074520485196e-02
215 2   4.98459292667455741710e-02
216 3   3.49123011298483948081e-03
216 4   5.33826171602722887588e-02
216 2  -5.17656676469080076486e-03
216 1  -2.06389922875117301287e-04
217 1  -4.23240352077920364837e-02
217 4   5.33683302582556307048e-02
217 3  -1.43724509371054298690e-02
217 2  -1.53485849186237449659e-01
218 1   1.17546250723528193649e-02
218 4   5.33822126820586162488e-02
218 3  -4.40418145280166081768e-03
218 2  -6.61289470501292501320e-03
219 3  -6.26773451011797787247e-03
219 4   5.33690349416602663468e-02
219 2  -1.61471364333365431654e-02
219 1   1.03340835258565064136e-01
220 4   5.33681085095389778905e-02
220 3  -1.46964541533175993560e-02
220 2  -2.03244939170344127155e-02
220 1  -8.54998300762399576769e-02
221 2   1.81939102079239634069e-01
221 4   5.33819501245147848278e-02
221 3   1.02323800874570564751e-02
221 1   9.98152211872837397122e-03
222 4   5.33619722041464364382e-02
222 3  -1.38149282114053920806e-02
222 2   2.29897363952264004172e-02
222 1   2.21669715056330818292e-01
223 4   5.33835892069382672576e-02
223 3   1.06102667060187727532e-01
223 2   4.12330363197677476905e-04
223 1  -2.62431374870746416186e-03
224 2  -1.17491403236505962716e-03
224 4   5.33861860255259237928e-02
224 3  -2.86645507734908135122e-02
224 1   4.37967602760319044825e-03
225 4   5.33806194485281562678e-02
225 3   4.40464306643945698733e-03
225 1   3.45090024782332286182e-03
225 2  -3.28338777986236210384e-04
226 4   5.33827627066363399888e-02
226 3   1.85771922940138715930e-02
226 1   3.34025418895256449858e-03
226 2   9.51777528162011700330e-03
227 2  -2.04055972727257943500e-02
227 4   5.33680917912638871914e-02
227 3  -1.35536730057391838905e-02
227 1  -1.45581549130470416786e-01
228 2   8.56312928707651799254e-03
228 4   5.33827201552365612769e-02
228 3   1.06628855643478293036e-02
228 1   2.89355950166157510281e-03
229 4   5.33685391692217681037e-02
229 3  -6.36814164633777921032e-03
229 2   9.64951856790721728720e-04
229 1  -2.82887091271169545392e-02
230 1   5.79662250757865421015e-04
230 4   5.33828149249203076643e-02
230 3   2.33067861355114105959e-02
230 2   3.58034836049507445427e-03
231 4   5.33814885034159941624e-02
231 2   6.31136085042471959433e-03
231 3  -2.36972800061963865398e-03
231 1  -4.70603489526844618110e-04
232 3  -1.17187368607760446226e-02
232 4   5.33687829546956871152e-02
232 2   8.25595971477338236300e-02
232 1   7.46906604870100354621e-02
233 1   8.90567979362445333313e-02
233 4   5.33685545965136218238e-02
233 3  -9.81608083054125168943e-03
233 2   2.58494694976944758280e-02
234 3   7.19411081684649591356e-03
234 4   5.33674511693250017141e-02
234 2   2.25751640484277583260e-03
234 1   1.29437508441663769523e-03
235 3  -3.11591321652431273159e-02
235 4   5.33770176579172889175e-02
235 1  -2.09908872166724921882e-03
235 2   2.39055134805039073672e-04
236 2  -1.66365082610956099146e-03
236 4   5.33778501289126489082e-02
236 3   1.80927249611445323252e-01
236 1   3.25945833355467977019e-03
237 1   3.10679916578941468092e-03
237 4   5.33628651297043399282e-02
237 3  -1.63573641683166411120e-02
237 2   3.06949588808276378760e-03
238 3  -8.26038403790420490413e-03
238 4   5.33855363152620845946e-02
238 2  -6.22576291490525238898e-03
238 1  -3.04078922790191425937e-04
239 1   3.73612648785509723556e-03
239 4   5.33815007606948735419e-02
239 3   2.72056842628553355312e-02
239 2  -4.87952850734248849696e-03
240 1  -3.42886731093254657626e-04
240 4   5.33876164444131023901e-02
240 3  -6.61862277117212655098e-02
240 2  -4.37227787007839555078e-03
241 3  -1.12817495524949004682e-01
241 4   5.33855211413217789485e-02
241 2  -4.24683077623649342641e-04
241 1   2.01438860203438175125e-04
242 4   5.33848235665530523875e-02
242 3   1.84199581412388610491e-02
242 1   3.77623113656949411371e-05
242 2  -5.89096949424062547277e-05
243 2   1.72368442868298956359e-03
243 4   5.33827683156598981062e-02
243 3   2.57465193114957905784e-04
243 1  -1.27178467444592963910e-03
244 4   5.33875879984683499035e-02
244 3  -2.01395629849032802017e-02
244 2   9.88914576156891536249e-04
244 1  -3.23183963280167273809e-04
245 4   5.33672510372402916778e-02
245 3  -1.01572020902406176535e-02
245 1   3.77751650245478701184e-02
245 2  -1.18703440020004366562e-01
246 2   3.77887053554399263144e-02
246 4   5.33621250777667685550e-02
246 3  -1.46490667725902613816e-02
246 1   1.44228392697143791013e-02
247 4   5.33632785339354098753e-02
247 3  -1.28773161764358396592e-02
247 2   3.38054094120226219893e-04
247 1  -2.68859918779748678641e-02
248 4   5.33636567519944413074e-02
248 3  -1.47200276836706514527e-02
248 1  -5.90763412460613007715e-02
248 2   7.36585232427142133638e-02
249 2  -1.26725158523397440913e-01
249 4   5.33684855334703861507e-02
249 3  -2.36614866727904230026e-02
249 1  -2.44161599020692498055e-03
250 4   5.33630590237806345932e-02
250 2  -9.87740067935865273530e-02
250 3  -1.41315993060487522098e-02
250 1   1.73100566751126561105e-01
251 3  -1.22265178699321169081e-02
251 4   5.33690480319572099766e-02
251 2   1.19064552710269350860e-02
251 1   1.06499742077117848238e-01
252 1  -2.18559639665230731609e-01
252 4   5.33679539729937785220e-02
252 3  -1.50031006639249515910e-02
252 2   3.89715673363018530462e-02
253 3   1.53691090961075027543e-03
253 4   5.33824739717886423418e-02
253 2   9.50886783544830152537e-03
253 1   1.84124086717519608140e-03
254 3   2.22378742149645994286e-02
254 4   5.33824496895713082600e-02
254 2   6.71626179058275596390e-02
254 1   3.01772379591493588799e-03
255 2  -1.12987629017987558505e-02
255 4   5.33815507745517836558e-02
255 3   5.08583746744055258115e-03
255 1  -1.16636382356420024824e-03
256 4   5.33689550587524361158e-02
256 2   5.88372903731503027469e-02
256 3  -1.13814784414753861902e-02
256 1   5.26963234720137334299e-03
257 4   5.33677609444636741332e-02
257 3  -1.17796103991886867007e-02
257 2   2.39903115564678928728e-02
257 1  -9.00328095616750173624e-03
258 1   1.51991961741949399567e-01
258 4   5.33629293689302508508e-02
258 3  -1.41280499560059134845e-02
258 2  -3.39631658256727558820e-02
259 1  -2.81309050829773059019e-03
259 4   5.33844964728338935989e-02
259 3  -7.20307373674804532482e-03
259 2   2.40620805618616245142e-03
260 3  -2.67384905162353810060e-02
260 4   5.33871425340804936499e-02
260 2  -6.51367804955604260547e-04
260 1   6.78795809430786010151e-05
261 1   5.97725210135380030825e-04
261 4   5.33815745698802204822e-02
261 3  -1.90801793187663493168e-02
261 2   7.53772704543530496640e-04
262 2   1.82513401581445473820e-02
262 4   5.33809340074149138444e-02
262 3   1.73481668656215275159e-02
262 1   9.77316606248752580213e-04
263 3   1.29494557768410536308e-02
263 4   5.33824552346806938119e-02
263 1  -6.82370449858531354093e-03
263 2   2.88939866179823701131e-02
264 1  -8.64224598943518079741e-02
264 3  -1.57373447065292590419e-02
264 2   9.68049442119369024651e-02
264 4   5.33681424445625746111e-02
265 3  -1.29567013644796211191e-02
265 4   5.33679248975994571791e-02
265 2   9.19026174075898982796e-02
265 1   2.25130009067003894474e-01
266 1  -2.59446063058099956472e-03
266 4   5.33792273134250649935e-02
266 3   2.37640333848834733876e-01
266 2   1.49477103397431237281e-02
267 3  -1.04298579169371970210e-02
267 4   5.33912537675310105989e-02
267 2  -1.18030245017079261395e-03
267 1  -7.95106082780528078619e-05
268 3   7.39876990277623693137e-03
268 4   5.33803905172851519967e-02
268 1  -2.94095889352633324543e-02
268 2   2.02592761485867745019e-01
269 2  -2.13443763407568333143e-03
269 4   5.33836546198291073129e-02
269 3   1.96843819943335572586e-02
269 1  -4.77142955634991231158e-04
270 1  -1.18806168317292959458e-01
270 4   5.33682178523531211556e-02
270 3  -1.68687583567003404617e-02
270 2   1.15154174743929468144e-02
271 3  -6.97719720364815831903e-02
271 4   5.33814988538683990460e-02
271 2  -4.78133583295900499444e-03
271 1   4.33165134868825768555e-03
272 1  -2.25367050513912631823e-04
272 4   5.33907833951832305752e-02
272 3  -5.28534917275596226316e-03
272 2  -1.28759463603735882682e-03
273 1   4.17072069475938212585e-03
273 4   5.33805423091712541450e-02
273 3   2.58974155986998674783e-02
273 2  -3.72166002436079713239e-03
274 3  -1.41290581109015187661e-02
274 4   5.33680928607775731387e-02
274 2  -8.94025273611091970960e-03
274 1  -8.64951203857931560925e-02
275 3  -1.36988728653494162141e-02
275 4   5.33645417822300738298e-02
275 2   3.67509439886758021432e-02
275 1   6.42969885832167936668e-02
276 4   5.33701532790130037109e-02
276 2   2.81416072492437835048e-03
276 3  -1.42922093565901794227e-02
276 1  -4.05933644293221124189e-02
277 4   5.33865450457305726339e-02
277 3  -9.93615451437280562674e-03
277 2  -9.44566707595400874634e-04
277 1   8.16304800678431551932e-04
278 4   5.33834359236679475980e-02
278 3   2.47606043455327815006e-02
278 2   5.62387361878681282801e-02
278 1  -2.19076598487758997247e-03
279 2   1.92690238457949268580e-02
279 4   5.33624025309982208398e-02
279 3  -1.39136749012786324620e-02
279 1   1.53946257311750434038e-01
280 4   5.33815039428084878170e-02
280 3   1.61008469052606323357e-02
280 1  -1.38161534921393824860e-02
280 2   1.38402949555637228007e-01
281 4   5.33689802198489202101e-02
281 3  -2.34433088280690364591e-02
281 1   1.48984228497039909028e-02
281 2   1.56391953874214006959e-01
282 2  -1.42329305260337889844e-02
282 4   5.33821462595086212999e-02
282 3   5.94604115883174636631e-03
282 1   2.91521170190070554387e-03
283 2   2.59240816818648855957e-02
283 4   5.33619091033282338943e-02
283 3  -1.30760685869661524849e-02
283 1  -5.63968853177538032018e-02
284 4   5.33676785895157088091e-02
284 3  -1.47112880655553574655e-02
284 2   4.93525260350811470489e-02
284 1   1.61630918740924556243e-01
285 1   7.33947640104111193732e-03
285 4   5.33742264216506070995e-02
285 3   1.07983863281734496220e-01
285 2   8.32833826389532683176e-03
286 3  -1.49650425230796486203e-02
286 4   5.33680455869251502143e-02
286 2   3.21356322256207624366e-02
286 1  -1.10463129119204056527e-01
287 4   5.33824999824333221166e-02
287 2  -1.04020236608082217687e-04
287 3   2.89855072569534140403e-02
287 1   3.77220896467465199343e-04
288 4   5.33801615637836193717e-02
288 3  -2.00863924106849167650e-01
288 2  -4.97401162193743771878e-03
288 1   3.26011515143129681701e-03
289 4   5.33839847406818931996e-02
289 3   1.76952177840076704807e-02
289 2  -1.21450883322809545517e-02
289 1   1.29396557308812600214e-03
290 2  -1.73055835241652834766e-02
290 4   5.33628174477337458015e-02
290 3  -1.44329665138030714677e-02
290 1   3.97856012349669108108e-02
291 4   5.33689760072297431082e-02
291 3  -1.03983843097275197725e-02
291 1  -2.03796667194957835390e-02
291 2  -3.24401813804836430810e-02
292 4   5.33819879244037953647e-02
292 3   1.69668088844467379595e-02
292 1  -7.88398739805470059883e-03
292 2  -1.62843132552181635297e-01
293 2   7.96047587248024414441e-03
293 4   5.33846379446104649102e-02
293 3   1.16346878913568783920e-02
293 1   1.61411821842377711019e-04
294 2  -6.32717209874725109234e-04
294 4   5.33760191767231120807e-02
294 3   2.63969120378423072193e-02
294 1   5.23459833395696974567e-03
295 4   5.33684544628537232969e-02
295 3  -1.43059115577591454416e-02
295 2   6.64539539780286542259e-02
295 1   5.28165364118786534453e-02
296 1  -5.33140632714780939895e-04
296 4   5.33818237489513541805e-02
296 3   1.42848284432905963531e-02
296 2   2.89225299076339564808e-02
297 4   5.33610686592786431781e-02
297 2   1.95283376669072528120e-01
297 3  -1.73263211414895132445e-02
297 1   6.73004123747821588614e-03
298 3   1.56229209461434224993e-02
298 4   5.33831557789556029880e-02
298 2  -4.56099223387155458531e-02
298 1  -6.66876777926850381611e-04
299 1   3.23672083360516862210e-03
299 4   5.33793638869979256145e-02
299 3   1.20940590257467839308e-02
299 2   1.06739730975433447235e-02
300 3   2.21717915291304128178e-03
300 4   5.33795923358530780001e-02
300 2  -1.00774629689078789804e-03
300 1  -8.08651717926327402719e-04
301 3  -6.89470918222171488127e-03
301 4   5.33874920309744399605e-02
301 1   2.43266858666881072596e-04
301 2  -3.13078124803385388769e-03
302 2  -9.90507519836287056436e-03
302 4   5.33801957130004972596e-02
302 3   1.04806181272850962305e-01
302 1  -3.80271408430445665219e-03
303 1   5.57461147639780121854e-02
303 4   5.33680501453426339720e-02
303 3  -1.19421504090973309986e-02
303 2   2.12833770359389939930e-02
304 3  -1.21544823592501065324e-02
304 4   5.33681872178183511202e-02
304 2  -9.00585031227107285501e-02
304 1   9.48634487067255977033e-02
305 1   5.94876385656420970352e-05
305 4   5.33824819429731048381e-02
305 3  -3.68592430706965110132e-02
305 2  -4.25042493262535025361e-03
306 1  -3.89447065324690202062e-03
306 4   5.33828019696537120486e-02
306 3  -5.22398316098469026048e-02
306 2   1.38581665497378874775e-03
307 3  -2.29093746334572863355e-02
307 4   5.33869747783853459966e-02
307 2  -4.86913461678975545161e-04
307 1   1.12131037431252752990e-05
308 2  -4.82053738749452578838e-03
308 4   5.33831968489502581288e-02
308 3   1.85127814751679456440e-02
308 1   5.72000847382636914973e-03
309 4   5.33856440883436200728e-02
309 3  -6.52379410379226587491e-02
309 2  -3.14291102605222675073e-03
309 1   4.41713830304981194819e-03
310 1   6.26904389119764676730e-02
310 4   5.33679106850834875098e-02
310 3  -8.62216444361077992420e-03
310 2  -1.50998715156605373133e-01
311 4   5.33676470224004675935e-02
311 3  -8.23145963236323816026e-03
311 2  -2.14617944749742134425e-01
311 1  -3.81517207714794359674e-02
312 3  -4.13334476372430401764e-03
312 4   5.33687782392797266384e-02
312 2   7.52388372942974920088e-02
312 1   2.50000958681060696243e-02
313 2   8.71386599708627519918e-04
313 4   5.33751062046507462888e-02
313 3  -3.59962082971265404097e-02
313 1   5.46609660531086234692e-03
314 1  -4.88169968270857866643e-03
314 4   5.33824944027736711383e-02
314 3  -1.53479000472529839016e-02
314 2  -3.79662167044328305397e-04
315 3   1.66701988729190189731e-02
315 4   5.33828103958294691855e-02
315 2  -4.19194656055631165170e-02
315 1   8.80146320690968451961e-03
316 1   3.65169283548957921554e-03
316 4   5.33829540718953818312e-02
316 3   1.02578890838794511975e-02
316 2  -3.46101995692799655271e-03
317 1  -1.75233507918103270651e-01
317 4   5.33686647437220385015e-02
317 3  -1.79501218205533677463e-02
317 2  -1.45977694155504222201e-02
318 3  -6.72110299819074150096e-03
318 4   5.33769196574385013099e-02
318 2   4.51220269890557565406e-03
318 1  -3.26136103017355110517e-03
319 4   5.33875912491577481189e-02
319 3   5.02399847064623206183e-03
319 1  -1.03814878360086282165e-03
319 2   7.08364628324415455951e-04
320 2   6.11467998565796908017e-02
320 4   5.33827443916483415642e-02
320 3   1.04191456997997210915e-02
320 1   6.53081968712206171329e-03
321 4   5.33685304863747156379e-02
321 3  -1.49327753488085572531e-02
321 2   1.39808043188699021586e-01
321 1   7.91334951387930203570e-03
322 4   5.33889675948444608622e-02
322 3  -4.90286205498735930264e-02
322 1  -3.85827059901566878867e-04
322 2  -4.91707651498856333772e-03
323 2  -2.43510000021567593956e-03
323 4   5.33822425366658609436e-02
323 3   1.82309486772327146442e-02
323 1  -1.28521965357451545958e-03
324 4   5.33858210867826157853e-02
324 3   1.52609690895399237494e-03
324 2   1.10464472207637970369e-02
324 1   1.05004701351072500699e-03
325 4   5.33631828204410088579e-02
325 3  -8.54341126660828308059e-03
325 1  -6.47757494233745650947e-02
325 2   3.73295388205203276799e-02
326 2   2.10632819129837334238e-02
326 4   5.33684260982712765919e-02
326 3  -1.47626929823541763048e-02
326 1  -1.15449752968842772605e-01
327 4   5.33827133229439615425e-02
327 2  -2.69086442317263956764e-03
327 3   1.81870820448093890864e-02
327 1  -1.60283275787897029965e-03
328 3  -3.22132043720667546327e-02
328 4   5.33793086067595942690e-02
328 2  -3.99092641051428716897e-03
328 1  -5.36041572777000321741e-04
329 1  -2.38371499225947629241e-03
329 4   5.33842496572704619529e-02
329 3   6.24989275164594942219e-03
329 2   1.50477097146508725922e-02
330 4   5.33886346284424967434e-02
330 2  -4.96573275296975690310e-04
330 3  -2.14443646716827966692e-02
330 1   1.75573170573248526745e-04
331 3  -8.30213703285055497350e-03
331 4   5.33810926426967688463e-02
331 2  -3.46712380297595603243e-03
331 1  -3.43545830078225864976e-03
332 1  -5.80310160175185382053e-03
332 4   5.33786201244146676914e-02
332 3   8.42864649861226056249e-02
332 2   4.79564147528605249499e-03
333 3  -4.60655525368014462373e-02
333 4   5.33811874989846626982e-02
333 2  -1.94523938582509916574e-03
333 1   3.75177598228830684601e-03
334 3  -1.35837012151106342750e-02
334 4   5.33626351455958186643e-02
334 1  -7.64241009598509574152e-02
334 2  -1.84997153828231342132e-02
335 2   1.28738184203701616637e-01
335 4   5.33671181289689933180e-02
335 3  -1.60635221312815275330e-02
335 1  -9.91462920749759668571e-03
336 1   1.55080310466767595790e-01
336 4   5.33677196153550387203e-02
336 3  -1.21822545884263267607e-02
336 2   8.80660839949304885543e-02
337 3  -1.71325870759024591339e-02
337 4   5.33671355888840903692e-02
337 2  -2.89550387150817496729e-02
337 1   2.66257702514832370055e-03
338 1   5.22447939576490457130e-05
338 4   5.33758050952697626901e-02
338 3  -4.07526712392731263468e-02
338 2   8.69981505525372678968e-04
339 1   5.37124348115122635106e-02
339 4   5.33683048250556818504e-02
339 3  -1.00392301875831500835e-02
339 2   3.46855722429970161902e-02
340 3   1.68673480152656297959e-02
340 4   5.33818846125950277615e-02
340 2   8.57900521240708424653e-02
340 1  -1.12475644053530287464e-02
341 2   4.62984869809088608883e-03
341 4   5.33835566806216896274e-02
341 3  -3.39639274405953220382e-02
341 1   1.68470491693654706583e-03
342 4   5.33819374577200328469e-02
342 3   1.29753236985520950530e-02
342 2   1.13396505842466258085e-01
342 1   6.50835942655282866792e-03
343 1   2.96833643785392913353e-03
343 4   5.33747004906445915440e-02
343 3   1.48933189153321408199e-02
343 2   2.16527373544136807204e-03
344 4   5.33855789747778794463e-02
344 1   2.59199241294727196570e-04
344 3  -1.61098516827590798606e-02
344 2  -2.67921044246771959327e-03
345 3  -1.04385374097694626216e-02
345 4   5.33629380343234108186e-02
345 2   2.44847260970624605592e-02
345 1  -1.74611713275005214774e-01
346 3  -1.04353409098167163038e-02
346 4   5.33486567129485556027e-02
346 1  -4.40034926344243498136e-03
346 2  -9.41762277408573285527e-04
347 4   5.33760435491268322994e-02
347 3  -4.24735172246376094241e-02
347 1  -2.89097119265232550822e-03
347 2   3.22016370435608502085e-03
348 2   2.06946031038353628340e-02
348 4   5.33671101590127566761e-02
348 3  -1.59086034557178700177e-02
348 1   9.77509406657369461779e-02
349 1   3.61180737523315214046e-05
349 4   5.33806550644191427080e-02
349 3   1.17707923510397965972e-02
349 2   1.84891794481201686938e-03
350 4   5.33811624566292164396e-02
350 3   1.64974388073930409992e-02
350 2  -3.16820528317824506859e-03
350 1  -7.78747068800862609489e-03
351 1   1.14235706753646067656e-03
351 3   1.96644273070375949497e-02
351 2  -4.99868076479641730570e-03
351 4   5.33817115487643031879e-02
