%%MatrixMarket vector coordinate real general
420
1   1.00000000000000444089e+00
2   9.99999999999329203249e-01
3   1.00000000000285371726e+00
4   1.00000000022021762192e+00
5   1.00000000000043387516e+00
6   9.99999999997324806600e-01
7   9.99999999900457625657e-01
8   1.00000000000009103829e+00
9   9.99999999789534244066e-01
10   1.00000000000394417832e+00
11   9.99999999999854005672e-01
12   9.99999999997853827871e-01
13   1.00000000000114264154e+00
14   9.99999999999935162975e-01
15   1.00000000000071698203e+00
16   9.99999999968282593521e-01
17   9.99999999998220978625e-01
18   9.99999999962724261948e-01
19   9.99999999999634181513e-01
20   1.00000000000029509728e+00
21   9.99999999987618570785e-01
22   9.99999999998845368054e-01
23   9.99999999999619637592e-01
24   1.00000000000281707990e+00
25   1.00000000010163136999e+00
26   9.99999999999662270156e-01
27   9.99999999992574384322e-01
28   1.00000000000217692531e+00
29   9.99999999999362176872e-01
30   9.99999999948012474604e-01
31   9.99999999999232502823e-01
32   9.99999999998992805672e-01
33   1.00000000002313593761e+00
34   1.00000000000023803182e+00
35   9.99999999999890420987e-01
36   9.99999999911131531860e-01
37   9.99999999998700483950e-01
38   1.00000000000127120536e+00
39   1.00000000000044808601e+00
40   1.00000000000014210855e+00
41   1.00000000000319211324e+00
42   9.99999999998079425190e-01
43   9.99999999998988808869e-01
44   9.99999999882814627483e-01
45   1.00000000001517208581e+00
46   9.99999999999983013588e-01
47   1.00000000005323563812e+00
48   1.00000000000018696156e+00
49   9.99999999941706074758e-01
50   9.99999999998001598556e-01
51   1.00000000000015809576e+00
52   1.00000000000176059167e+00
53   9.99999999968933628303e-01
54   1.00000000017970180899e+00
55   9.99999999998757216346e-01
56   9.99999999999894861880e-01
57   9.99999999893468660694e-01
58   1.00000000000027489122e+00
59   9.99999999999694910713e-01
60   1.00000000018162094051e+00
61   9.99999999998620214825e-01
62   1.00000000000102029496e+00
63   9.99999999989423238311e-01
64   9.99999999999342636947e-01
65   1.00000000000252398102e+00
66   1.00000000004525047004e+00
67   1.00000000000087574392e+00
68   1.00000000000042899018e+00
69   1.00000000011700151958e+00
70   9.99999999999518052185e-01
71   9.99999999999983568699e-01
72   9.99999999986178833566e-01
73   1.00000000000130451205e+00
74   1.00000000000223043806e+00
75   9.99999999921442617179e-01
76   9.99999999999867217326e-01
77   9.99999999999051536470e-01
78   9.99999999949719442505e-01
79   9.99999999997272404073e-01
80   1.00000000000137290179e+00
81   1.00000000000348410190e+00
82   1.00000000000079536377e+00
83   1.00000000000061795014e+00
84   9.99999999973834818867e-01
85   9.99999999999627187108e-01
86   1.00000000000041322501e+00
87   9.99999999998856248240e-01
88   9.99999999998579358618e-01
89   9.99999999967998820516e-01
90   9.99999999993253174679e-01
91   1.00000000000034172665e+00
92   1.00000000000164934733e+00
93   9.99999999999742872347e-01
94   1.00000000000064237504e+00
95   1.00000000000058508753e+00
96   9.99999999999519273430e-01
97   9.99999999943288475635e-01
98   9.99999999996273758462e-01
99   9.99999999985597964880e-01
100   1.00000000000160449432e+00
101   9.99999999997932209617e-01
102   9.99999999997486010983e-01
103   9.99999999997420618847e-01
104   1.00000000003199329690e+00
105   9.99999999758640178982e-01
106   9.99999999999042543664e-01
107   1.00000000000331668026e+00
108   9.99999999939432560048e-01
109   9.99999999997512545313e-01
110   9.99999999998725019879e-01
111   1.00000000008048006706e+00
112   1.00000000000116173737e+00
113   9.99999999999027444630e-01
114   1.00000000000055000449e+00
115   9.99999999999600208689e-01
116   9.99999999990191068555e-01
117   9.99999999976855402650e-01
118   9.99999999999183764032e-01
119   1.00000000000151278989e+00
120   1.00000000000133826283e+00
121   9.99999999999279576279e-01
122   1.00000000005541167525e+00
123   9.99999999993734900450e-01
124   1.00000000000088795638e+00
125   9.99999999998318567229e-01
126   9.99999999999369615367e-01
127   9.99999999999336197654e-01
128   1.00000000000117905685e+00
129   9.99999999972740583054e-01
130   9.99999999998864019801e-01
131   1.00000000000076871842e+00
132   1.00000000000217359464e+00
133   9.99999999997752353487e-01
134   1.00000000000049027449e+00
135   1.00000000000598143757e+00
136   1.00000000001646016656e+00
137   1.00000000000129141142e+00
138   9.99999999997148170117e-01
139   9.99999999925581195548e-01
140   1.00000000000356359386e+00
141   1.00000000000051669780e+00
142   1.00000000000270361511e+00
143   1.00000000000187605487e+00
144   1.00000000003648970015e+00
145   1.00000000001875299915e+00
146   9.99999999999596989042e-01
147   1.00000000000195754524e+00
148   9.99999999985805687608e-01
149   9.99999999996608934794e-01
150   9.99999999999715449839e-01
151   1.00000000000081268325e+00
152   1.00000000000065880634e+00
153   1.00000000001342437272e+00
154   9.99999999952363549660e-01
155   9.99999999999915623050e-01
156   1.00000000001943178951e+00
157   1.00000000000279354317e+00
158   9.99999999998289368364e-01
159   1.00000000001506861302e+00
160   1.00000000000116662235e+00
161   1.00000000000134470213e+00
162   1.00000000001577959985e+00
163   9.99999999999166999665e-01
164   1.00000000000123856481e+00
165   9.99999999979797160599e-01
166   9.99999999999830357922e-01
167   1.00000000000103761444e+00
168   9.99999999977911890880e-01
169   9.99999999999121036431e-01
170   1.00000000000099187325e+00
171   9.99999999989279353407e-01
172   9.99999999997910227201e-01
173   9.99999999998325117545e-01
174   1.00000000000111577414e+00
175   1.00000000000257704968e+00
176   9.99999999955134666330e-01
177   1.00000000004017786104e+00
178   9.99999999998352651076e-01
179   1.00000000000168154379e+00
180   9.99999999950769824508e-01
181   9.99999999998475441743e-01
182   1.00000000000187694305e+00
183   1.00000000002711186831e+00
184   9.99999999991501131724e-01
185   9.99999999985444421036e-01
186   1.00000000002298294888e+00
187   9.99999999999658828465e-01
188   1.00000000000145305989e+00
189   1.00000000000714761583e+00
190   1.00000000000025046631e+00
191   1.00000000000037725378e+00
192   1.00000000034936120663e+00
193   1.00000000000056221694e+00
194   1.00000000000006661338e+00
195   1.00000000000028621550e+00
196   9.99999999999149902230e-01
197   1.00000000000584265969e+00
198   9.99999999998530286760e-01
199   9.99999999998590460848e-01
200   9.99999999977198128498e-01
201   1.00000000008071587843e+00
202   1.00000000000283861823e+00
203   9.99999999999049427046e-01
204   9.99999999997410182750e-01
205   9.99999999999083510893e-01
206   1.00000000002662048360e+00
207   9.99999999995411337217e-01
208   1.00000000000116950893e+00
209   9.99999999998755662034e-01
210   9.99999999983060328113e-01
211   9.99999999999586330901e-01
212   1.00000000000181032966e+00
213   1.00000000000115174537e+00
214   9.99999999999634958670e-01
215   1.00000000003452105268e+00
216   9.99999999951770912610e-01
217   9.99999999999689359598e-01
218   9.99999999997462585277e-01
219   1.00000000006241474004e+00
220   9.99999999998452571148e-01
221   1.00000000000100142117e+00
222   9.99999999914081727503e-01
223   9.99999999995931920793e-01
224   9.99999999993487209693e-01
225   9.99999999984646836815e-01
226   1.00000000000709565739e+00
227   1.00000000000926103638e+00
228   1.00000000002113398345e+00
229   9.99999999999646171922e-01
230   9.99999999998558042336e-01
231   1.00000000007475842168e+00
232   1.00000000000129385391e+00
233   1.00000000000050781601e+00
234   1.00000000012475109834e+00
235   9.99999999999405919660e-01
236   1.00000000000316013882e+00
237   1.00000000000105426778e+00
238   9.99999999999015232177e-01
239   9.99999999972114306246e-01
240   9.99999999984206078274e-01
241   9.99999999998324784478e-01
242   9.99999999998709143689e-01
243   9.99999999931255323382e-01
244   9.99999999999198641021e-01
245   9.99999999997414290576e-01
246   1.00000000010025780206e+00
247   1.00000000000223931984e+00
248   1.00000000000043276493e+00
249   9.99999999938529282595e-01
250   9.99999999998785193966e-01
251   1.00000000000124344979e+00
252   1.00000000002818012490e+00
253   9.99999999998393396261e-01
254   1.00000000000263078448e+00
255   9.99999999979560016961e-01
256   9.99999999993768429185e-01
257   1.00000000000026112446e+00
258   1.00000000030697688835e+00
259   1.00000000000001443290e+00
260   1.00000000000085087493e+00
261   9.99999999999396593786e-01
262   9.99999999999073185819e-01
263   9.99999999976124764878e-01
264   1.00000000001557176610e+00
265   9.99999999997674193786e-01
266   1.00000000000225086616e+00
267   9.99999999952241203083e-01
268   1.00000000000010613732e+00
269   9.99999999998805511048e-01
270   1.00000000000137001521e+00
271   9.99999999999758304448e-01
272   9.99999999999815702978e-01
273   1.00000000007766631782e+00
274   1.00000000005288303129e+00
275   9.99999999998426036818e-01
276   9.99999999999546362872e-01
277   1.00000000003480393751e+00
278   1.00000000000048516746e+00
279   9.99999999950596185627e-01
280   1.00000000000076849638e+00
281   1.00000000000952149470e+00
282   1.00000000000115241150e+00
283   9.99999999998259059275e-01
284   9.99999999743967804555e-01
285   1.00000000011823031443e+00
286   9.99999999999330979605e-01
287   1.00000000000058753002e+00
288   9.99999999999778288462e-01
289   9.99999999997839950083e-01
290   1.00000000000160582658e+00
291   1.00000000000165401026e+00
292   9.99999999997821076292e-01
293   9.99999999989932830680e-01
294   1.00000000010060929867e+00
295   9.99999999999610200696e-01
296   9.99999999998306132731e-01
297   9.99999999923023685788e-01
298   1.00000000000042632564e+00
299   9.99999999999301114606e-01
300   1.00000000005596234587e+00
301   1.00000000000124344979e+00
302   1.00000000000053845817e+00
303   9.99999999882305035115e-01
304   1.00000000000257882604e+00
305   9.99999999998741007090e-01
306   9.99999999947638551490e-01
307   1.00000000000076716411e+00
308   1.00000000000002153833e+00
309   9.99999999982748910554e-01
310   1.00000000000463296068e+00
311   9.99999999997191801882e-01
312   1.00000000007482525710e+00
313   1.00000000000039768189e+00
314   9.99999999998710142890e-01
315   9.99999999999150790408e-01
316   1.00000000000067168493e+00
317   1.00000000000026223468e+00
318   9.99999999949412798905e-01
319   1.00000000000011990409e+00
320   9.99999999997733035606e-01
321   1.00000000000027045033e+00
322   1.00000000000204303241e+00
323   9.99999999980474729711e-01
324   9.99999999865595290416e-01
325   1.00000000000090261132e+00
326   9.99999999998058330952e-01
327   9.99999999998145150393e-01
328   1.00000000000205369055e+00
329   9.99999999999103050818e-01
330   9.99999999807652639738e-01
331   9.99999999997827626608e-01
332   9.99999999999938493644e-01
333   9.99999999929373717400e-01
334   1.00000000000119393384e+00
335   9.99999999998912980637e-01
336   1.00000000000170263803e+00
337   9.99999999912752568498e-01
338   9.99999999998416488900e-01
339   9.99999999990409116357e-01
340   9.99999999997431388010e-01
341   9.99999999996888710996e-01
342   1.00000000000012989609e+00
343   1.00000000000274091860e+00
344   9.99999999962873142856e-01
345   9.99999999979262144123e-01
346   9.99999999998377631094e-01
347   1.00000000000075917050e+00
348   1.00000000004272737719e+00
349   1.00000000000192135197e+00
350   9.99999999998575028748e-01
351   1.00000000003857025810e+00
352   9.99999999999834465747e-01
353   1.00000000000045186077e+00
354   1.00000000016253531854e+00
355   1.00000000000071276318e+00
356   1.00000000000083644203e+00
357   9.99999999995969224287e-01
358   1.00000000000309041681e+00
359   1.00000000000033550940e+00
360   9.99999999997265520690e-01
361   9.99999999999592992239e-01
362   1.00000000006837397315e+00
363   1.00000000012133982707e+00
364   1.00000000000822963919e+00
365   9.99999999995009547504e-01
366   1.00000000000559663427e+00
367   9.99999999967619457308e-01
368   9.99999999997359889647e-01
369   1.00000000018446133510e+00
370   1.00000000000157096558e+00
371   9.99999999999955258012e-01
372   1.00000000008426015441e+00
373   9.99999999998743338558e-01
374   9.99999999998563482428e-01
375   9.99999999968765318492e-01
376   1.00000000000881317241e+00
377   1.00000000000132516220e+00
378   9.99999999999563460307e-01
379   9.99999999998997912698e-01
380   1.00000000005084710430e+00
381   9.99999999994934274383e-01
382   1.00000000000276823009e+00
383   1.00000000000557909274e+00
384   9.99999999998506639010e-01
385   9.99999999998224642361e-01
386   9.99999999995773491968e-01
387   1.00000000011243361797e+00
388   9.99999999999430899678e-01
389   1.00000000000030841996e+00
390   1.00000000001449995679e+00
391   1.00000000000170041758e+00
392   9.99999999998247290911e-01
393   1.00000000000320632410e+00
394   1.00000000000007216450e+00
395   1.00000000000199218420e+00
396   9.99999999999908739667e-01
397   9.99999999998757993502e-01
398   9.99999999688363172545e-01
399   1.00000000014070034027e+00
400   9.99999999995146660048e-01
401   9.99999999999470756684e-01
402   1.00000000001126787552e+00
403   1.00000000000041855408e+00
404   9.99999999997325694778e-01
405   9.99999999917862258947e-01
406   9.99999999994123145441e-01
407   1.00000000000391686683e+00
408   9.99999999986889265280e-01
409   1.00000000000035349501e+00
410   1.00000000000232747155e+00
411   9.99999999832850372528e-01
412   1.00000000000035771386e+00
413   1.00000000000015409896e+00
414   1.00000000025775959145e+00
415   9.99999999985336618380e-01
416   1.00000000000623345819e+00
417   9.99999999751048584962e-01
418   1.00000000000039546144e+00
419   9.99999999999147348717e-01
420   9.99999999975977216238e-01
