%%MatrixMarket matrix coordinate real general
36 242 1052
1 1 0.0000000000000000
1 2 0.0000000000000000
1 3 0.0000000000000000
1 4 0.0000000000000000
1 5 0.0000000000000000
1 6 0.0000000000000000
1 7 0.0000000000000000
1 8 0.0000000000000000
1 9 0.0000000000000000
1 10 0.0000000000000000
1 11 0.0000000000000000
1 12 0.0000000000000000
2 1 0.0000000000000000
2 2 0.0000000000000000
2 3 0.0000000000000000
2 4 0.0000000000000000
2 5 0.0000000000000000
2 6 0.0000000000000000
2 7 0.0000000000000000
2 8 0.0000000000000000
2 9 0.0000000000000000
2 10 0.0000000000000000
2 11 0.0000000000000000
2 12 0.0000000000000000
2 13 0.0000000000000000
2 14 0.0000000000000000
2 15 0.0000000000000000
2 16 0.0000000000000000
2 17 0.0000000000000000
2 18 0.0000000000000000
2 19 0.0000000000000000
2 20 0.0000000000000000
2 21 0.0000000000000000
2 22 0.0000000000000000
2 23 0.0000000000000000
2 24 0.0000000000000000
3 1 0.0000000000000000
3 2 0.0000000000000000
3 3 0.0000000000000000
3 4 0.0000000000000000
3 5 0.0000000000000000
3 6 0.0000000000000000
3 7 0.0000000000000000
3 8 0.0000000000000000
3 9 0.0000000000000000
3 10 0.0000000000000000
3 11 0.0000000000000000
3 12 0.0000000000000000
3 15 0.0000000000000000
3 16 0.0000000000000000
3 19 0.0000000000000000
3 20 0.0000000000000000
3 23 0.0000000000000000
3 24 0.0000000000000000
3 25 0.0000000000000000
3 26 0.0000000000000000
3 27 0.0000000000000000
3 28 0.0000000000000000
3 29 0.0000000000000000
3 30 0.0000000000000000
4 3 0.0000000000000000
4 4 0.0000000000000000
4 13 0.0000000000000000
4 14 0.0000000000000000
4 15 0.0000000000000000
4 16 0.0000000000000000
4 17 0.0000000000000000
4 18 0.0000000000000000
4 19 0.0000000000000000
4 20 0.0000000000000000
4 21 0.0000000000000000
4 22 0.0000000000000000
4 31 0.0000000000000000
4 32 0.0000000000000000
4 33 0.0000000000000000
4 34 0.0000000000000000
4 35 0.0000000000000000
4 36 0.0000000000000000
4 37 0.0000000000000000
4 38 0.0000000000000000
4 39 0.0000000000000000
4 40 0.0000000000000000
4 41 0.0000000000000000
4 42 0.0000000000000000
5 3 0.0000000000000000
5 4 0.0000000000000000
5 5 0.0000000000000000
5 6 -0.0000000000000000
5 7 0.0166666666666666
5 8 -0.0166666666666666
5 13 0.0000000000000000
5 14 0.0000000000000000
5 15 0.0000000000000001
5 16 0.0000000000000001
5 17 0.0166666666666665
5 18 0.0166666666666665
5 19 0.0333333333333335
5 20 -0.0166666666666666
5 21 0.0166666666666667
5 22 -0.0000000000000000
5 23 0.0166666666666667
5 24 -0.0333333333333332
5 25 0.0000000000000000
5 26 0.0000000000000000
5 27 -0.0166666666666668
5 28 -0.0166666666666668
5 29 0.0000000000000002
5 30 -0.0166666666666666
5 33 0.0000000000000000
5 34 0.0000000000000000
5 37 -0.0000000000000000
5 38 0.0166666666666666
5 41 -0.0166666666666666
5 42 0.0333333333333335
5 43 -0.0000000000000000
5 44 0.0000000000000000
5 45 -0.0166666666666666
5 46 0.0166666666666666
5 47 -0.0333333333333332
5 48 0.0166666666666667
5 49 -0.0166666666666666
5 50 0.0000000000000002
6 5 0.0000000000000000
6 6 0.0000000000000000
6 15 0.0000000000000000
6 16 0.0000000000000000
6 23 0.0000000000000000
6 24 0.0000000000000000
6 25 0.0000000000000000
6 26 0.0000000000000000
6 27 0.0000000000000000
6 28 0.0000000000000000
6 29 0.0000000000000000
6 30 0.0000000000000000
6 43 0.0000000000000000
6 44 0.0000000000000000
6 47 0.0000000000000000
6 48 0.0000000000000000
6 49 0.0000000000000000
6 50 0.0000000000000000
6 51 0.0000000000000000
6 52 0.0000000000000000
6 53 0.0000000000000000
6 54 0.0000000000000000
6 55 0.0000000000000000
6 56 0.0000000000000000
7 13 0.0000000000000000
7 14 0.0000000000000000
7 31 0.0000000000000000
7 32 0.0000000000000000
7 33 0.0000000000000000
7 34 0.0000000000000000
7 35 0.0000000000000000
7 36 0.0000000000000000
7 37 0.0000000000000000
7 38 0.0000000000000000
7 39 0.0000000000000000
7 40 0.0000000000000000
7 57 0.0000000000000000
7 58 0.0000000000000000
7 59 0.0000000000000000
7 60 0.0000000000000000
7 61 0.0000000000000000
7 62 0.0000000000000000
7 63 0.0000000000000000
7 64 0.0000000000000000
7 65 0.0000000000000000
7 66 0.0000000000000000
7 67 0.0000000000000000
7 68 0.0000000000000000
8 13 0.0000000000000000
8 14 0.0000000000000000
8 15 0.0000000000000000
8 16 -0.0000000000000000
8 17 0.0166666666666666
8 18 -0.0166666666666666
8 31 0.0000000000000000
8 32 0.0000000000000000
8 33 0.0000000000000001
8 34 0.0000000000000001
8 35 0.0166666666666665
8 36 0.0166666666666665
8 37 0.0333333333333335
8 38 -0.0166666666666666
8 39 0.0166666666666666
8 40 -0.0000000000000000
8 41 0.0166666666666667
8 42 -0.0333333333333332
8 43 0.0000000000000000
8 44 0.0000000000000000
8 45 -0.0166666666666668
8 46 -0.0166666666666668
8 47 0.0000000000000002
8 48 -0.0166666666666666
8 59 0.0000000000000000
8 60 0.0000000000000000
8 63 -0.0000000000000000
8 64 0.0166666666666666
8 67 -0.0166666666666666
8 68 0.0333333333333335
8 69 -0.0000000000000000
8 70 0.0000000000000000
8 71 -0.0166666666666666
8 72 0.0166666666666666
8 73 -0.0333333333333332
8 74 0.0166666666666667
8 75 -0.0166666666666666
8 76 0.0000000000000002
9 15 0.0000000000000000
9 16 0.0000000000000000
9 25 0.0000000000000000
9 26 -0.0000000000000000
9 27 0.0166666666666666
9 28 -0.0166666666666666
9 33 0.0000000000000000
9 34 0.0000000000000000
9 41 0.0166666666666667
9 42 -0.0000000000000000
9 43 0.0000000000000001
9 44 0.0000000000000001
9 45 0.0166666666666665
9 46 0.0166666666666665
9 47 0.0333333333333335
9 48 -0.0166666666666666
9 49 0.0166666666666667
9 50 -0.0333333333333332
9 51 0.0000000000000000
9 52 0.0000000000000000
9 53 -0.0166666666666668
9 54 -0.0166666666666668
9 55 0.0000000000000002
9 56 -0.0166666666666666
9 69 0.0000000000000000
9 70 0.0000000000000000
9 73 -0.0000000000000000
9 74 0.0166666666666666
9 75 -0.0166666666666666
9 76 0.0333333333333335
9 77 -0.0000000000000000
9 78 0.0000000000000000
9 79 -0.0166666666666666
9 80 0.0166666666666666
9 81 -0.0333333333333332
9 82 0.0166666666666667
9 83 -0.0166666666666666
9 84 0.0000000000000002
10 25 0.0000000000000000
10 26 0.0000000000000000
10 43 0.0000000000000000
10 44 0.0000000000000000
10 49 0.0000000000000000
10 50 0.0000000000000000
10 51 0.0000000000000000
10 52 0.0000000000000000
10 53 0.0000000000000000
10 54 0.0000000000000000
10 55 0.0000000000000000
10 56 0.0000000000000000
10 77 0.0000000000000000
10 78 0.0000000000000000
10 81 0.0000000000000000
10 82 0.0000000000000000
10 83 0.0000000000000000
10 84 0.0000000000000000
10 85 0.0000000000000000
10 86 0.0000000000000000
10 87 0.0000000000000000
10 88 0.0000000000000000
10 89 0.0000000000000000
10 90 0.0000000000000000
11 31 0.0000000000000000
11 32 0.0000000000000000
11 57 0.0000000000000000
11 58 0.0000000000000000
11 59 0.0000000000000000
11 60 0.0000000000000000
11 61 0.0000000000000000
11 62 0.0000000000000000
11 63 0.0000000000000000
11 64 0.0000000000000000
11 65 0.0000000000000000
11 66 0.0000000000000000
11 91 0.0000000000000000
11 92 0.0000000000000000
11 93 0.0000000000000000
11 94 0.0000000000000000
11 95 0.0000000000000000
11 96 0.0000000000000000
11 97 0.0000000000000000
11 98 0.0000000000000000
11 99 0.0000000000000000
11 100 0.0000000000000000
11 101 0.0000000000000000
11 102 0.0000000000000000
12 31 0.0000000000000000
12 32 0.0000000000000000
12 33 0.0000000000000000
12 34 -0.0000000000000000
12 35 0.0166666666666666
12 36 -0.0166666666666666
12 57 0.0000000000000000
12 58 0.0000000000000000
12 59 0.0000000000000001
12 60 0.0000000000000001
12 61 0.0166666666666665
12 62 0.0166666666666665
12 63 0.0333333333333335
12 64 -0.0166666666666666
12 65 0.0166666666666666
12 66 -0.0000000000000000
12 67 0.0166666666666667
12 68 -0.0333333333333332
12 69 0.0000000000000000
12 70 0.0000000000000000
12 71 -0.0166666666666668
12 72 -0.0166666666666668
12 73 0.0000000000000002
12 74 -0.0166666666666666
12 93 0.0000000000000000
12 94 0.0000000000000000
12 97 -0.0000000000000000
12 98 0.0166666666666666
12 101 -0.0166666666666666
12 102 0.0333333333333335
12 103 -0.0000000000000000
12 104 0.0000000000000000
12 105 -0.0166666666666666
12 106 0.0166666666666666
12 107 -0.0333333333333332
12 108 0.0166666666666667
12 109 -0.0166666666666666
12 110 0.0000000000000002
13 33 0.0000000000000000
13 34 0.0000000000000000
13 43 0.0000000000000000
13 44 -0.0000000000000000
13 45 0.0166666666666666
13 46 -0.0166666666666666
13 59 0.0000000000000000
13 60 0.0000000000000000
13 67 0.0166666666666666
13 68 -0.0000000000000000
13 69 0.0000000000000001
13 70 0.0000000000000001
13 71 0.0166666666666665
13 72 0.0166666666666665
13 73 0.0333333333333335
13 74 -0.0166666666666666
13 75 0.0166666666666667
13 76 -0.0333333333333332
13 77 0.0000000000000000
13 78 0.0000000000000000
13 79 -0.0166666666666668
13 80 -0.0166666666666668
13 81 0.0000000000000002
13 82 -0.0166666666666666
13 103 0.0000000000000000
13 104 0.0000000000000000
13 107 -0.0000000000000000
13 108 0.0166666666666666
13 109 -0.0166666666666666
13 110 0.0333333333333335
13 111 -0.0000000000000000
13 112 0.0000000000000000
13 113 -0.0166666666666666
13 114 0.0166666666666666
13 115 -0.0333333333333332
13 116 0.0166666666666667
13 117 -0.0166666666666666
13 118 0.0000000000000002
14 43 0.0000000000000000
14 44 0.0000000000000000
14 51 0.0000000000000000
14 52 -0.0000000000000000
14 53 0.0166666666666666
14 54 -0.0166666666666666
14 69 0.0000000000000000
14 70 0.0000000000000000
14 75 0.0166666666666667
14 76 -0.0000000000000000
14 77 0.0000000000000001
14 78 0.0000000000000001
14 79 0.0166666666666665
14 80 0.0166666666666665
14 81 0.0333333333333335
14 82 -0.0166666666666666
14 83 0.0166666666666667
14 84 -0.0333333333333332
14 85 0.0000000000000000
14 86 0.0000000000000000
14 87 -0.0166666666666668
14 88 -0.0166666666666668
14 89 0.0000000000000002
14 90 -0.0166666666666666
14 111 0.0000000000000000
14 112 0.0000000000000000
14 115 -0.0000000000000000
14 116 0.0166666666666666
14 117 -0.0166666666666666
14 118 0.0333333333333335
14 119 -0.0000000000000000
14 120 0.0000000000000000
14 121 -0.0166666666666666
14 122 0.0166666666666666
14 123 -0.0333333333333332
14 124 0.0166666666666667
14 125 -0.0166666666666666
14 126 0.0000000000000002
15 51 0.0000000000000000
15 52 0.0000000000000000
15 77 0.0000000000000000
15 78 0.0000000000000000
15 83 0.0000000000000000
15 84 0.0000000000000000
15 85 0.0000000000000000
15 86 0.0000000000000000
15 87 0.0000000000000000
15 88 0.0000000000000000
15 89 0.0000000000000000
15 90 0.0000000000000000
15 119 0.0000000000000000
15 120 0.0000000000000000
15 123 0.0000000000000000
15 124 0.0000000000000000
15 125 0.0000000000000000
15 126 0.0000000000000000
15 127 0.0000000000000000
15 128 0.0000000000000000
15 129 0.0000000000000000
15 130 0.0000000000000000
15 131 0.0000000000000000
15 132 0.0000000000000000
16 57 0.0000000000000000
16 58 0.0000000000000000
16 91 0.0000000000000000
16 92 0.0000000000000000
16 93 0.0000000000000000
16 94 0.0000000000000000
16 95 0.0000000000000000
16 96 0.0000000000000000
16 97 0.0000000000000000
16 98 0.0000000000000000
16 99 0.0000000000000000
16 100 0.0000000000000000
16 133 0.0000000000000000
16 134 0.0000000000000000
16 135 0.0000000000000000
16 136 0.0000000000000000
16 137 0.0000000000000000
16 138 0.0000000000000000
17 57 0.0000000000000000
17 58 0.0000000000000000
17 59 0.0000000000000000
17 60 -0.0000000000000000
17 61 0.0166666666666666
17 62 -0.0166666666666666
17 91 0.0000000000000000
17 92 0.0000000000000000
17 93 0.0000000000000001
17 94 0.0000000000000001
17 95 0.0166666666666665
17 96 0.0166666666666665
17 97 0.0333333333333335
17 98 -0.0166666666666666
17 99 0.0166666666666666
17 100 -0.0000000000000000
17 101 0.0166666666666667
17 102 -0.0333333333333332
17 103 0.0000000000000000
17 104 0.0000000000000000
17 105 -0.0166666666666668
17 106 -0.0166666666666668
17 107 0.0000000000000002
17 108 -0.0166666666666666
17 133 0.0000000000000000
17 134 0.0000000000000000
17 135 -0.0166666666666666
17 136 0.0333333333333335
17 137 -0.0000000000000000
17 138 0.0166666666666666
17 139 -0.0000000000000000
17 140 0.0000000000000000
17 141 -0.0166666666666666
17 142 0.0166666666666666
17 143 -0.0333333333333332
17 144 0.0166666666666667
17 145 -0.0166666666666666
17 146 0.0000000000000002
18 59 0.0000000000000000
18 60 0.0000000000000000
18 69 0.0000000000000000
18 70 -0.0000000000000000
18 71 0.0166666666666666
18 72 -0.0166666666666666
18 93 0.0000000000000000
18 94 0.0000000000000000
18 101 0.0166666666666666
18 102 -0.0000000000000000
18 103 0.0000000000000001
18 104 0.0000000000000001
18 105 0.0166666666666665
18 106 0.0166666666666665
18 107 0.0333333333333335
18 108 -0.0166666666666666
18 109 0.0166666666666667
18 110 -0.0333333333333332
18 111 0.0000000000000000
18 112 0.0000000000000000
18 113 -0.0166666666666668
18 114 -0.0166666666666668
18 115 0.0000000000000002
18 116 -0.0166666666666666
18 139 0.0000000000000000
18 140 0.0000000000000000
18 143 -0.0000000000000000
18 144 0.0166666666666666
18 145 -0.0166666666666666
18 146 0.0333333333333335
18 147 -0.0000000000000000
18 148 0.0000000000000000
18 149 -0.0166666666666666
18 150 0.0166666666666666
18 151 -0.0333333333333332
18 152 0.0166666666666667
18 153 -0.0166666666666666
18 154 0.0000000000000002
19 69 0.0000000000000000
19 70 0.0000000000000000
19 77 0.0000000000000000
19 78 -0.0000000000000000
19 79 0.0166666666666666
19 80 -0.0166666666666666
19 103 0.0000000000000000
19 104 0.0000000000000000
19 109 0.0166666666666666
19 110 -0.0000000000000000
19 111 0.0000000000000001
19 112 0.0000000000000001
19 113 0.0166666666666665
19 114 0.0166666666666665
19 115 0.0333333333333335
19 116 -0.0166666666666666
19 117 0.0166666666666667
19 118 -0.0333333333333332
19 119 0.0000000000000000
19 120 0.0000000000000000
19 121 -0.0166666666666668
19 122 -0.0166666666666668
19 123 0.0000000000000002
19 124 -0.0166666666666666
19 147 0.0000000000000000
19 148 0.0000000000000000
19 151 -0.0000000000000000
19 152 0.0166666666666666
19 153 -0.0166666666666666
19 154 0.0333333333333335
19 155 -0.0000000000000000
19 156 0.0000000000000000
19 157 -0.0166666666666666
19 158 0.0166666666666666
19 159 -0.0333333333333332
19 160 0.0166666666666667
19 161 -0.0166666666666666
19 162 0.0000000000000002
20 77 0.0000000000000000
20 78 0.0000000000000000
20 85 0.0000000000000000
20 86 -0.0000000000000000
20 87 0.0166666666666666
20 88 -0.0166666666666666
20 111 0.0000000000000000
20 112 0.0000000000000000
20 117 0.0166666666666667
20 118 -0.0000000000000000
20 119 0.0000000000000001
20 120 0.0000000000000001
20 121 0.0166666666666665
20 122 0.0166666666666665
20 123 0.0333333333333335
20 124 -0.0166666666666666
20 125 0.0166666666666667
20 126 -0.0333333333333332
20 127 0.0000000000000000
20 128 0.0000000000000000
20 129 -0.0166666666666668
20 130 -0.0166666666666668
20 131 0.0000000000000002
20 132 -0.0166666666666666
20 155 0.0000000000000000
20 156 0.0000000000000000
20 159 -0.0000000000000000
20 160 0.0166666666666667
20 161 -0.0166666666666666
20 162 0.0333333333333335
20 163 -0.0000000000000000
20 164 0.0000000000000000
20 165 -0.0166666666666666
20 166 0.0166666666666666
20 167 -0.0333333333333332
20 168 0.0166666666666667
20 169 -0.0166666666666666
20 170 0.0000000000000002
21 85 0.0000000000000000
21 86 0.0000000000000000
21 119 0.0000000000000000
21 120 0.0000000000000000
21 125 0.0000000000000000
21 126 0.0000000000000000
21 127 0.0000000000000000
21 128 0.0000000000000000
21 129 0.0000000000000000
21 130 0.0000000000000000
21 131 0.0000000000000000
21 132 0.0000000000000000
21 163 0.0000000000000000
21 164 0.0000000000000000
21 167 0.0000000000000000
21 168 0.0000000000000000
21 169 0.0000000000000000
21 170 0.0000000000000000
22 91 0.0000000000000000
22 92 0.0000000000000000
22 93 0.0000000000000000
22 94 0.0000000000000000
22 95 0.0000000000000000
22 96 0.0000000000000000
22 133 0.0000000000000000
22 134 0.0000000000000000
22 135 0.0000000000000000
22 136 0.0000000000000000
22 137 0.0000000000000000
22 138 0.0000000000000000
22 139 0.0000000000000000
22 140 0.0000000000000000
22 141 0.0000000000000000
22 142 0.0000000000000000
22 143 0.0000000000000000
22 144 0.0000000000000000
22 171 0.0000000000000000
22 172 0.0000000000000000
22 173 0.0000000000000000
22 174 0.0000000000000000
22 175 0.0000000000000000
22 176 0.0000000000000000
23 93 0.0000000000000000
23 94 0.0000000000000000
23 103 0.0000000000000000
23 104 -0.0000000000000000
23 105 0.0166666666666666
23 106 -0.0166666666666666
23 133 0.0000000000000000
23 134 0.0000000000000000
23 135 0.0166666666666666
23 136 -0.0000000000000000
23 139 0.0000000000000001
23 140 0.0000000000000001
23 141 0.0166666666666665
23 142 0.0166666666666665
23 143 0.0333333333333335
23 144 -0.0166666666666666
23 145 0.0166666666666667
23 146 -0.0333333333333332
23 147 0.0000000000000000
23 148 0.0000000000000000
23 149 -0.0166666666666668
23 150 -0.0166666666666668
23 151 0.0000000000000002
23 152 -0.0166666666666666
23 171 0.0000000000000000
23 172 0.0000000000000000
23 173 -0.0166666666666666
23 174 0.0333333333333335
23 175 -0.0000000000000000
23 176 0.0166666666666666
23 177 -0.0000000000000000
23 178 0.0000000000000000
23 179 -0.0166666666666666
23 180 0.0166666666666666
23 181 -0.0333333333333332
23 182 0.0166666666666667
23 183 -0.0166666666666666
23 184 0.0000000000000002
24 103 0.0000000000000000
24 104 0.0000000000000000
24 111 0.0000000000000000
24 112 -0.0000000000000000
24 113 0.0166666666666666
24 114 -0.0166666666666666
24 139 0.0000000000000000
24 140 0.0000000000000000
24 145 0.0166666666666666
24 146 -0.0000000000000000
24 147 0.0000000000000001
24 148 0.0000000000000001
24 149 0.0166666666666665
24 150 0.0166666666666665
24 151 0.0333333333333335
24 152 -0.0166666666666666
24 153 0.0166666666666667
24 154 -0.0333333333333332
24 155 0.0000000000000000
24 156 0.0000000000000000
24 157 -0.0166666666666668
24 158 -0.0166666666666668
24 159 0.0000000000000002
24 160 -0.0166666666666666
24 177 0.0000000000000000
24 178 0.0000000000000000
24 181 -0.0000000000000000
24 182 0.0166666666666666
24 183 -0.0166666666666666
24 184 0.0333333333333335
24 185 -0.0000000000000000
24 186 0.0000000000000000
24 187 -0.0166666666666666
24 188 0.0166666666666666
24 189 -0.0333333333333332
24 190 0.0166666666666667
24 191 -0.0166666666666666
24 192 0.0000000000000002
25 111 0.0000000000000000
25 112 0.0000000000000000
25 119 0.0000000000000000
25 120 -0.0000000000000000
25 121 0.0166666666666666
25 122 -0.0166666666666666
25 147 0.0000000000000000
25 148 0.0000000000000000
25 153 0.0166666666666666
25 154 -0.0000000000000000
25 155 0.0000000000000001
25 156 0.0000000000000001
25 157 0.0166666666666665
25 158 0.0166666666666665
25 159 0.0333333333333335
25 160 -0.0166666666666666
25 161 0.0166666666666667
25 162 -0.0333333333333332
25 163 0.0000000000000000
25 164 0.0000000000000000
25 165 -0.0166666666666668
25 166 -0.0166666666666668
25 167 0.0000000000000002
25 168 -0.0166666666666666
25 185 0.0000000000000000
25 186 0.0000000000000000
25 189 -0.0000000000000000
25 190 0.0166666666666667
25 191 -0.0166666666666666
25 192 0.0333333333333335
25 193 -0.0000000000000000
25 194 0.0000000000000000
25 195 -0.0166666666666666
25 196 0.0166666666666666
25 197 -0.0333333333333332
25 198 0.0166666666666667
25 199 -0.0166666666666666
25 200 0.0000000000000002
26 119 0.0000000000000000
26 120 0.0000000000000000
26 127 0.0000000000000000
26 128 0.0000000000000000
26 129 0.0000000000000000
26 130 0.0000000000000000
26 155 0.0000000000000000
26 156 0.0000000000000000
26 161 0.0000000000000000
26 162 0.0000000000000000
26 163 0.0000000000000000
26 164 0.0000000000000000
26 165 0.0000000000000000
26 166 0.0000000000000000
26 167 0.0000000000000000
26 168 0.0000000000000000
26 169 0.0000000000000000
26 170 0.0000000000000000
26 193 0.0000000000000000
26 194 0.0000000000000000
26 197 0.0000000000000000
26 198 0.0000000000000000
26 199 0.0000000000000000
26 200 0.0000000000000000
27 133 0.0000000000000000
27 134 0.0000000000000000
27 139 0.0000000000000000
27 140 0.0000000000000000
27 141 0.0000000000000000
27 142 0.0000000000000000
27 171 0.0000000000000000
27 172 0.0000000000000000
27 173 0.0000000000000000
27 174 0.0000000000000000
27 175 0.0000000000000000
27 176 0.0000000000000000
27 177 0.0000000000000000
27 178 0.0000000000000000
27 179 0.0000000000000000
27 180 0.0000000000000000
27 181 0.0000000000000000
27 182 0.0000000000000000
27 201 0.0000000000000000
27 202 0.0000000000000000
27 203 0.0000000000000000
27 204 0.0000000000000000
27 205 0.0000000000000000
27 206 0.0000000000000000
28 139 0.0000000000000000
28 140 0.0000000000000000
28 147 0.0000000000000000
28 148 -0.0000000000000000
28 149 0.0166666666666666
28 150 -0.0166666666666666
28 171 0.0000000000000000
28 172 0.0000000000000000
28 173 0.0166666666666666
28 174 -0.0000000000000000
28 177 0.0000000000000001
28 178 0.0000000000000001
28 179 0.0166666666666665
28 180 0.0166666666666665
28 181 0.0333333333333335
28 182 -0.0166666666666666
28 183 0.0166666666666667
28 184 -0.0333333333333332
28 185 0.0000000000000000
28 186 0.0000000000000000
28 187 -0.0166666666666668
28 188 -0.0166666666666668
28 189 0.0000000000000002
28 190 -0.0166666666666666
28 201 0.0000000000000000
28 202 0.0000000000000000
28 203 -0.0166666666666666
28 204 0.0333333333333335
28 205 -0.0000000000000000
28 206 0.0166666666666666
28 207 -0.0000000000000000
28 208 0.0000000000000000
28 209 -0.0166666666666666
28 210 0.0166666666666666
28 211 -0.0333333333333332
28 212 0.0166666666666667
28 213 -0.0166666666666666
28 214 0.0000000000000002
29 147 0.0000000000000000
29 148 0.0000000000000000
29 155 0.0000000000000000
29 156 -0.0000000000000000
29 157 0.0166666666666666
29 158 -0.0166666666666666
29 177 0.0000000000000000
29 178 0.0000000000000000
29 183 0.0166666666666666
29 184 -0.0000000000000000
29 185 0.0000000000000001
29 186 0.0000000000000001
29 187 0.0166666666666665
29 188 0.0166666666666665
29 189 0.0333333333333335
29 190 -0.0166666666666666
29 191 0.0166666666666667
29 192 -0.0333333333333332
29 193 0.0000000000000000
29 194 0.0000000000000000
29 195 -0.0166666666666668
29 196 -0.0166666666666668
29 197 0.0000000000000002
29 198 -0.0166666666666666
29 207 0.0000000000000000
29 208 0.0000000000000000
29 211 -0.0000000000000000
29 212 0.0166666666666667
29 213 -0.0166666666666666
29 214 0.0333333333333335
29 215 -0.0000000000000000
29 216 0.0000000000000000
29 217 -0.0166666666666666
29 218 0.0166666666666666
29 219 -0.0333333333333332
29 220 0.0166666666666667
29 221 -0.0166666666666666
29 222 0.0000000000000002
30 155 0.0000000000000000
30 156 0.0000000000000000
30 163 0.0000000000000000
30 164 0.0000000000000000
30 165 0.0000000000000000
30 166 0.0000000000000000
30 185 0.0000000000000000
30 186 0.0000000000000000
30 191 0.0000000000000000
30 192 0.0000000000000000
30 193 0.0000000000000000
30 194 0.0000000000000000
30 195 0.0000000000000000
30 196 0.0000000000000000
30 197 0.0000000000000000
30 198 0.0000000000000000
30 199 0.0000000000000000
30 200 0.0000000000000000
30 215 0.0000000000000000
30 216 0.0000000000000000
30 219 0.0000000000000000
30 220 0.0000000000000000
30 221 0.0000000000000000
30 222 0.0000000000000000
31 171 0.0000000000000000
31 172 0.0000000000000000
31 177 0.0000000000000000
31 178 0.0000000000000000
31 179 0.0000000000000000
31 180 0.0000000000000000
31 201 0.0000000000000000
31 202 0.0000000000000000
31 203 0.0000000000000000
31 204 0.0000000000000000
31 205 0.0000000000000000
31 206 0.0000000000000000
31 207 0.0000000000000000
31 208 0.0000000000000000
31 209 0.0000000000000000
31 210 0.0000000000000000
31 211 0.0000000000000000
31 212 0.0000000000000000
31 223 0.0000000000000000
31 224 0.0000000000000000
31 225 0.0000000000000000
31 226 0.0000000000000000
31 227 0.0000000000000000
31 228 0.0000000000000000
32 177 0.0000000000000000
32 178 0.0000000000000000
32 185 0.0000000000000000
32 186 -0.0000000000000000
32 187 0.0166666666666666
32 188 -0.0166666666666666
32 201 0.0000000000000000
32 202 0.0000000000000000
32 203 0.0166666666666666
32 204 -0.0000000000000000
32 207 0.0000000000000001
32 208 0.0000000000000001
32 209 0.0166666666666665
32 210 0.0166666666666665
32 211 0.0333333333333335
32 212 -0.0166666666666666
32 213 0.0166666666666667
32 214 -0.0333333333333332
32 215 0.0000000000000000
32 216 0.0000000000000000
32 217 -0.0166666666666668
32 218 -0.0166666666666668
32 219 0.0000000000000002
32 220 -0.0166666666666666
32 223 0.0000000000000000
32 224 0.0000000000000000
32 225 -0.0166666666666666
32 226 0.0333333333333335
32 227 -0.0000000000000000
32 228 0.0166666666666667
32 229 -0.0000000000000000
32 230 0.0000000000000000
32 231 -0.0166666666666666
32 232 0.0166666666666666
32 233 -0.0333333333333332
32 234 0.0166666666666667
32 235 -0.0166666666666666
32 236 0.0000000000000002
33 185 0.0000000000000000
33 186 0.0000000000000000
33 193 0.0000000000000000
33 194 0.0000000000000000
33 195 0.0000000000000000
33 196 0.0000000000000000
33 207 0.0000000000000000
33 208 0.0000000000000000
33 213 0.0000000000000000
33 214 0.0000000000000000
33 215 0.0000000000000000
33 216 0.0000000000000000
33 217 0.0000000000000000
33 218 0.0000000000000000
33 219 0.0000000000000000
33 220 0.0000000000000000
33 221 0.0000000000000000
33 222 0.0000000000000000
33 229 0.0000000000000000
33 230 0.0000000000000000
33 233 0.0000000000000000
33 234 0.0000000000000000
33 235 0.0000000000000000
33 236 0.0000000000000000
34 201 0.0000000000000000
34 202 0.0000000000000000
34 207 0.0000000000000000
34 208 0.0000000000000000
34 209 0.0000000000000000
34 210 0.0000000000000000
34 223 0.0000000000000000
34 224 0.0000000000000000
34 225 0.0000000000000000
34 226 0.0000000000000000
34 227 0.0000000000000000
34 228 0.0000000000000000
34 229 0.0000000000000000
34 230 0.0000000000000000
34 231 0.0000000000000000
34 232 0.0000000000000000
34 233 0.0000000000000000
34 234 0.0000000000000000
34 237 0.0000000000000000
34 238 0.0000000000000000
34 239 0.0000000000000000
34 240 0.0000000000000000
34 241 0.0000000000000000
34 242 0.0000000000000000
35 207 0.0000000000000000
35 208 0.0000000000000000
35 215 0.0000000000000000
35 216 0.0000000000000000
35 217 0.0000000000000000
35 218 0.0000000000000000
35 223 0.0000000000000000
35 224 0.0000000000000000
35 225 0.0000000000000000
35 226 0.0000000000000000
35 229 0.0000000000000000
35 230 0.0000000000000000
35 231 0.0000000000000000
35 232 0.0000000000000000
35 233 0.0000000000000000
35 234 0.0000000000000000
35 235 0.0000000000000000
35 236 0.0000000000000000
35 237 0.0000000000000000
35 238 0.0000000000000000
35 239 0.0000000000000000
35 240 0.0000000000000000
35 241 0.0000000000000000
35 242 0.0000000000000000
36 223 0.0000000000000000
36 224 0.0000000000000000
36 229 0.0000000000000000
36 230 0.0000000000000000
36 231 0.0000000000000000
36 232 0.0000000000000000
36 237 0.0000000000000000
36 238 0.0000000000000000
36 239 0.0000000000000000
36 240 0.0000000000000000
36 241 0.0000000000000000
36 242 0.0000000000000000
