%%MatrixMarket matrix coordinate real general
36 36 132
1 1 2.0
2 2 2.0
3 3 2.0
4 4 2.0
5 2 0.0096666666666667
5 3 0.0096666666666667
5 4 -0.0003333333333333
5 5 0.958
5 6 -0.0003333333333333
5 8 0.0096666666666667
5 9 0.0096666666666667
6 6 2.0
7 7 2.0
8 4 0.0096666666666667
8 5 0.0096666666666667
8 7 -0.0003333333333333
8 8 0.958
8 9 -0.0003333333333333
8 12 0.0096666666666667
8 13 0.0096666666666667
9 5 0.0096666666666667
9 6 0.0096666666666667
9 8 -0.0003333333333333
9 9 0.958
9 10 -0.0003333333333333
9 13 0.0096666666666667
9 14 0.0096666666666667
10 10 2.0
11 11 2.0
12 7 0.0096666666666667
12 8 0.0096666666666667
12 11 -0.0003333333333333
12 12 0.958
12 13 -0.0003333333333333
12 17 0.0096666666666667
12 18 0.0096666666666667
13 8 0.0096666666666667
13 9 0.0096666666666667
13 12 -0.0003333333333333
13 13 0.958
13 14 -0.0003333333333333
13 18 0.0096666666666667
13 19 0.0096666666666667
14 9 0.0096666666666667
14 10 0.0096666666666667
14 13 -0.0003333333333333
14 14 0.958
14 15 -0.0003333333333333
14 19 0.0096666666666667
14 20 0.0096666666666667
15 15 2.0
16 16 2.0
17 11 0.0096666666666667
17 12 0.0096666666666667
17 16 -0.0003333333333333
17 17 0.958
17 18 -0.0003333333333333
17 22 0.0096666666666667
17 23 0.0096666666666667
18 12 0.0096666666666667
18 13 0.0096666666666667
18 17 -0.0003333333333333
18 18 0.958
18 19 -0.0003333333333333
18 23 0.0096666666666667
18 24 0.0096666666666667
19 13 0.0096666666666667
19 14 0.0096666666666667
19 18 -0.0003333333333333
19 19 0.958
19 20 -0.0003333333333333
19 24 0.0096666666666667
19 25 0.0096666666666667
20 14 0.0096666666666667
20 15 0.0096666666666667
20 19 -0.0003333333333333
20 20 0.958
20 21 -0.0003333333333333
20 25 0.0096666666666667
20 26 0.0096666666666667
21 21 2.0
22 22 2.0
23 17 0.0096666666666667
23 18 0.0096666666666667
23 22 -0.0003333333333333
23 23 0.958
23 24 -0.0003333333333333
23 27 0.0096666666666667
23 28 0.0096666666666667
24 18 0.0096666666666667
24 19 0.0096666666666667
24 23 -0.0003333333333333
24 24 0.958
24 25 -0.0003333333333333
24 28 0.0096666666666667
24 29 0.0096666666666667
25 19 0.0096666666666667
25 20 0.0096666666666667
25 24 -0.0003333333333333
25 25 0.958
25 26 -0.0003333333333333
25 29 0.0096666666666667
25 30 0.0096666666666667
26 26 2.0
27 27 2.0
28 23 0.0096666666666667
28 24 0.0096666666666667
28 27 -0.0003333333333333
28 28 0.958
28 29 -0.0003333333333333
28 31 0.0096666666666667
28 32 0.0096666666666667
29 24 0.0096666666666667
29 25 0.0096666666666667
29 28 -0.0003333333333333
29 29 0.958
29 30 -0.0003333333333333
29 32 0.0096666666666667
29 33 0.0096666666666667
30 30 2.0
31 31 2.0
32 28 0.0096666666666667
32 29 0.0096666666666667
32 31 -0.0003333333333333
32 32 0.958
32 33 -0.0003333333333333
32 34 0.0096666666666667
32 35 0.0096666666666667
33 33 2.0
34 34 2.0
35 35 2.0
36 36 2.0
